Node Number,LOCX*1000 (),LOCY*1000 (),LOCZ*1000 (),Equivalent (von-Mises) Stress (Pa)
1,-19,12.153,-62.073,6.85E+07
2,-19,-9.2543,-59.823,8.25E+07
3,-19,7.8718,-61.623,1.06E+08
4,-19,3.5903,-61.173,1.51E+08
5,-19,-0.69125,-60.723,1.56E+08
6,-19,-4.9728,-60.273,1.29E+08
7,-20,-9.1498,-58.829,6.63E+07
8,-19.707,-9.2237,-59.532,7.26E+07
9,-20,11.263,-60.974,5.12E+07
10,-20,-5.0672,-59.258,1.04E+08
11,-20,-0.98453,-59.687,1.40E+08
12,-20,3.0981,-60.116,1.68E+08
13,-20,7.1808,-60.545,1.43E+08
14,-19.763,11.838,-61.684,5.24E+07
15,-19,-20,-47.889,3.05E+07
16,-20,-19,-47.889,1.66E+07
17,-19.707,-19.707,-47.889,1.57E+07
18,-20,-18.269,-51.831,2.21E+07
19,-20,-16.175,-55.249,3.58E+07
20,-20,-12.994,-57.69,4.68E+07
21,-19,-13.448,-58.581,4.84E+07
22,-19,-16.918,-55.918,3.92E+07
23,-19,-19.203,-52.189,3.36E+07
24,-19,-20,-46.567,3.22E+07
25,-20,-19,-46.567,2.08E+07
26,-19.707,-19.707,-46.567,1.11E+07
27,-21.053,-19.002,-38.688,1.72E+07
28,-20.763,-19.712,-38.614,2.77E+07
29,-20.265,-19.001,-42.593,4.53E+07
30,-19.263,-20,-42.541,5.25E+06
31,-20,13.249,-42.078,2.41E+07
32,-20,11.76,-56.25,8.82E+07
33,-20,12.256,-51.526,1.20E+08
34,-20,12.682,-47.474,9.27E+07
35,-19,14.244,-42.183,2.23E+07
36,-19.707,13.953,-42.152,2.24E+07
37,-19,13.721,-47.155,8.25E+07
38,-19,13.199,-52.128,1.16E+08
39,-19,12.676,-57.101,1.29E+08
40,-8.5,-20,-47.889,1.06E+08
41,-15.5,-20,-47.889,8.63E+07
42,-12,-20,-47.889,1.02E+08
43,-8.5,-20,-44.272,1.67E+08
44,-7.934,-20,-42.508,2.20E+08
45,-20,-20,-38.339,1.31E+08
46,-16.122,-20,-40.124,4.95E+07
47,-12.087,-20,-41.519,1.07E+08
48,-20,-20,-38.584,8.36E+07
49,39,-9.2543,-59.823,7.30E+06
50,-14.167,-9.2543,-59.823,1.16E+08
51,-9.3333,-9.2543,-59.823,1.32E+08
52,-4.5,-9.2543,-59.823,2.21E+08
53,0.33333,-9.2543,-59.823,2.48E+08
54,5.1667,-9.2543,-59.823,2.41E+08
55,10,-9.2543,-59.823,1.63E+08
56,14.833,-9.2543,-59.823,1.61E+08
57,19.667,-9.2543,-59.823,1.16E+08
58,24.5,-9.2543,-59.823,6.61E+07
59,29.333,-9.2543,-59.823,3.79E+07
60,34.167,-9.2543,-59.823,2.05E+07
61,39,-20,-47.889,1.17E+07
62,39,-19.203,-52.189,1.07E+07
63,39,-16.918,-55.918,8.05E+06
64,39,-13.448,-58.581,7.00E+06
65,8.5,-20,-47.889,8.90E+06
66,12.857,-20,-47.889,4.66E+07
67,17.214,-20,-47.889,5.51E+07
68,21.571,-20,-47.889,4.97E+07
69,25.929,-20,-47.889,3.87E+07
70,30.286,-20,-47.889,2.54E+07
71,34.643,-20,-47.889,1.18E+07
72,8.5,-15.429,-57.313,9.01E+07
73,8.5,-17.889,-54.686,3.09E+07
74,8.5,-19.46,-51.448,1.11E+07
75,5.5,-12,-59.203,1.96E+08
76,7.7895,-13.215,-58.697,1.65E+08
77,-5.5,-12,-59.203,1.38E+08
78,-1.8333,-12,-59.203,1.07E+08
79,1.8333,-12,-59.203,1.33E+08
80,-8.5,-15.429,-57.313,8.13E+07
81,-7.7895,-13.215,-58.697,9.55E+07
82,-8.5,-19.46,-51.448,6.22E+07
83,-8.5,-17.889,-54.686,5.36E+07
84,-16.5,12.153,-62.073,9.78E+07
85,-16.5,38.508,-64.843,1.20E+06
86,-16.5,34.116,-64.382,7.74E+05
87,-16.5,29.723,-63.92,6.87E+06
88,-16.5,25.331,-63.458,9.81E+06
89,-16.5,20.938,-62.997,2.95E+07
90,-16.5,16.546,-62.535,5.85E+07
91,-3,38.508,-64.843,1.40E+06
92,-7.5,38.508,-64.843,1.02E+06
93,-12,38.508,-64.843,2.55E+06
94,-3,23.576,-63.274,7.94E+07
95,-3,27.309,-63.666,3.67E+07
96,-3,31.042,-64.058,7.15E+06
97,-3,34.775,-64.451,3.36E+06
98,3,23.576,-63.274,8.48E+07
99,-6.757,21.049,-63.008,7.45E+07
100,-8.7982,17.022,-62.585,1.08E+08
101,-8.6053,12.515,-62.111,2.61E+08
102,-6.2271,8.6746,-61.708,6.19E+08
103,-2.2676,6.475,-61.476,8.90E+08
104,2.2676,6.475,-61.476,9.19E+08
105,6.2271,8.6746,-61.708,6.52E+08
106,8.6053,12.515,-62.111,3.10E+08
107,8.7982,17.022,-62.585,6.68E+07
108,6.757,21.049,-63.008,5.01E+07
109,3,38.508,-64.843,1.97E+06
110,3,34.775,-64.451,2.20E+06
111,3,31.042,-64.058,9.38E+06
112,3,27.309,-63.666,4.57E+07
113,16.5,38.508,-64.843,1.67E+06
114,12,38.508,-64.843,3.21E+06
115,7.5,38.508,-64.843,1.38E+06
116,16.5,12.153,-62.073,8.23E+07
117,16.5,16.546,-62.535,2.01E+07
118,16.5,20.938,-62.997,2.38E+07
119,16.5,25.331,-63.458,2.02E+07
120,16.5,29.723,-63.92,1.39E+07
121,16.5,34.116,-64.382,1.37E+06
122,19,12.153,-62.073,3.26E+07
123,19,2.8955,-61.1,2.39E+08
124,19,8.0431,-61.641,4.96E+07
125,23,-1.1045,-60.68,1.33E+08
126,20.168,7.16E-02,-60.803,2.84E+08
127,39,-1.1045,-60.68,1.66E+06
128,35,-1.1045,-60.68,7.60E+06
129,31,-1.1045,-60.68,1.09E+07
130,27,-1.1045,-60.68,4.13E+07
131,39,-5.1794,-60.251,4.98E+06
132,-16.5,14.244,-42.183,2.03E+08
133,-18,14.087,-43.675,2.27E+08
134,-17.561,14.198,-42.62,2.23E+08
135,-18,12.31,-60.581,1.81E+08
136,-18,12.754,-56.355,2.47E+08
137,-18,13.199,-52.128,2.50E+08
138,-18,13.643,-47.901,2.18E+08
139,-17.561,12.199,-61.636,1.72E+08
140,-20,2.6864,-40.968,2.17E+08
141,-20,6.2074,-41.338,1.11E+08
142,-20,9.7284,-41.708,1.37E+08
143,20.016,2.6864,-40.968,2.87E+08
144,15.57,2.6864,-40.968,1.09E+08
145,11.124,2.6864,-40.968,7.59E+07
146,6.6776,2.6864,-40.968,1.05E+08
147,2.2314,2.6864,-40.968,1.31E+08
148,-2.2149,2.6864,-40.968,1.26E+08
149,-6.6612,2.6864,-40.968,1.21E+08
150,-11.107,2.6864,-40.968,1.55E+08
151,-15.554,2.6864,-40.968,1.97E+08
152,20,3,-41.001,3.04E+08
153,20,13.249,-42.078,4.68E+07
154,20,10.68,-41.808,1.76E+08
155,20,6.4165,-41.36,2.07E+08
156,19,14.244,-42.183,2.95E+07
157,19.707,13.953,-42.152,2.94E+07
158,16.5,14.244,-42.183,2.96E+08
159,16.5,40.599,-44.953,1.75E+06
160,16.5,36.206,-44.491,2.53E+06
161,16.5,31.814,-44.029,1.78E+07
162,16.5,27.421,-43.568,5.26E+07
163,16.5,23.029,-43.106,1.14E+08
164,16.5,18.636,-42.644,2.22E+08
165,3,40.599,-44.953,1.90E+06
166,7.5,40.599,-44.953,3.67E+06
167,12,40.599,-44.953,1.55E+06
168,3,25.666,-43.383,1.43E+08
169,3,29.399,-43.776,3.17E+07
170,3,33.133,-44.168,1.31E+07
171,3,36.866,-44.56,2.13E+06
172,-3,25.666,-43.383,1.30E+08
173,6.757,23.14,-43.118,2.37E+08
174,8.7982,19.112,-42.694,4.41E+08
175,8.6053,14.606,-42.221,5.96E+08
176,6.2271,10.765,-41.817,5.25E+08
177,2.2676,8.5656,-41.586,2.96E+08
178,-2.2676,8.5656,-41.586,1.24E+08
179,-6.2271,10.765,-41.817,3.28E+08
180,-8.6053,14.606,-42.221,4.18E+08
181,-8.7982,19.112,-42.694,3.44E+08
182,-6.757,23.14,-43.118,1.98E+08
183,-3,40.599,-44.953,1.71E+06
184,-3,36.866,-44.56,1.70E+06
185,-3,33.133,-44.168,9.37E+06
186,-3,29.399,-43.776,2.15E+07
187,-16.5,40.599,-44.953,1.39E+06
188,-12,40.599,-44.953,1.24E+06
189,-7.5,40.599,-44.953,2.75E+06
190,-16.5,18.636,-42.644,1.61E+08
191,-16.5,23.029,-43.106,8.44E+07
192,-16.5,27.421,-43.568,3.53E+07
193,-16.5,31.814,-44.029,9.72E+06
194,-16.5,36.206,-44.491,2.27E+06
195,84.3,37.043,5.5,2.17E+07
196,84.683,35.981,4.5,7.62E+06
197,84.416,36.706,4.7733,9.67E+06
198,62.411,11.676,4.5,5.36E+07
199,81.502,32.509,4.5,1.80E+07
200,78.32,29.037,4.5,2.59E+07
201,75.138,25.565,4.5,3.14E+07
202,71.957,22.093,4.5,3.64E+07
203,68.775,18.62,4.5,4.14E+07
204,65.593,15.148,4.5,4.63E+07
205,61.674,12.352,5.5,6.43E+07
206,61.89,12.154,4.7929,5.99E+07
207,64.906,15.879,5.5,5.73E+07
208,68.139,19.406,5.5,5.14E+07
209,71.371,22.934,5.5,4.54E+07
210,74.603,26.461,5.5,3.92E+07
211,77.835,29.989,5.5,3.24E+07
212,81.068,33.516,5.5,2.51E+07
213,40,-13.627,-6.7122,3.91E+08
214,40,-11.302,-4.3191,2.31E+08
215,40,-12.097,-5.8744,3.70E+08
216,42.758,-8.2914,-1.6685,3.25E+07
217,45.69,-5.0918,0.53765,1.48E+07
218,48.749,-1.7534,2.3272,2.16E+07
219,51.902,1.687,3.7173,4.65E+07
220,55.122,5.2016,4.7087,7.84E+07
221,58.387,8.7647,5.3025,7.12E+07
222,59.404,8.2838,4.3284,6.01E+07
223,56.415,4.9108,3.8128,5.22E+07
224,53.461,1.5771,2.952,2.28E+07
225,50.562,-1.6962,1.7448,1.35E+07
226,47.737,-4.8867,0.19053,1.59E+07
227,45.01,-7.9664,-1.7217,2.14E+07
228,42.417,-10.896,-4.0158,1.49E+08
229,63.391,-18.785,4.5,1.34E+08
230,62.694,7.3303,4.5,3.24E+07
231,62.929,2.9818,4.5,3.28E+07
232,63.117,-1.3691,4.5,5.91E+07
233,63.257,-5.7217,4.5,9.07E+07
234,63.349,-10.076,4.5,1.19E+08
235,63.394,-14.43,4.5,1.36E+08
236,47.333,-24.011,-0.11604,1.23E+08
237,51.302,-23.711,1.9772,1.21E+08
238,55.448,-22.765,3.4406,1.29E+08
239,59.548,-21.11,4.2563,1.34E+08
240,43.71,-24.013,-2.7976,1.31E+08
241,35.334,-29.832,-14.271,1.41E+08
242,36.817,-27.829,-11.257,1.34E+08
243,38.671,-26.013,-8.3322,8.97E+07
244,40.956,-24.611,-5.49,1.26E+08
245,35.473,-24.893,-14.292,1.89E+08
246,39.784,-24.911,-6.8735,1.18E+08
247,37.362,-24.901,-10.428,1.90E+08
248,40,-23.31,-6.6445,2.31E+08
249,40,-20,-6.7025,3.14E+08
250,40,-16.814,-6.734,2.95E+08
251,100.84,21.048,4.5,3.71E+07
252,86.704,31.905,4.5,1.45E+07
253,89.43,28.262,4.5,1.61E+07
254,92.771,25.174,4.5,2.31E+07
255,96.616,22.742,4.5,2.92E+07
256,68.181,-14.592,4.5,1.39E+08
257,71.447,-11.028,4.5,1.49E+08
258,74.712,-7.4642,4.5,1.49E+08
259,77.978,-3.9002,4.5,1.42E+08
260,81.244,-0.3362,4.5,1.32E+08
261,84.51,3.2278,4.5,1.21E+08
262,87.775,6.7918,4.5,1.09E+08
263,91.041,10.356,4.5,9.76E+07
264,94.307,13.92,4.5,8.51E+07
265,97.573,17.484,4.5,6.91E+07
266,65.901,-16.82,4.5,1.30E+08
267,39.356,-1,4.5,1.19E+08
268,39.356,2.91E-11,5.5,1.23E+08
269,39.356,-0.29289,4.7929,1.30E+08
270,57.788,8.1102,5.5,7.64E+07
271,43.482,0.34286,5.5,1.40E+08
272,48.471,1.7209,5.5,1.30E+08
273,51.285,3.0296,5.5,1.14E+08
274,54.747,5.2997,5.5,9.37E+07
275,52.963,2.845,4.5,7.82E+07
276,48.69,0.73316,4.5,1.09E+08
277,44.103,-0.56304,4.5,1.10E+08
278,37.773,-1,4.5,1.25E+08
279,37.6,2.78E-11,5.5,9.05E+07
280,37.735,-0.48485,4.6429,1.37E+08
281,38.059,-13.42,4.5,9.22E+07
282,49.982,-0.40805,4.5,8.40E+07
283,47.001,-3.6611,4.5,5.00E+07
284,44.02,-6.9142,4.5,3.43E+07
285,41.039,-10.167,4.5,3.88E+07
286,38.006,-9.2793,4.5,9.56E+07
287,37.911,-5.1391,4.5,8.96E+07
288,40,-19.12,-15.713,2.39E+08
289,39.185,-20.1,-15.787,2.30E+08
290,39.77,-19.757,-15.761,2.42E+08
291,39.167,-20.082,-16.086,2.18E+08
292,40,-19.098,-16.017,2.31E+08
293,39.764,-19.742,-16.062,2.21E+08
294,39.647,-21.948,-8.7874,2.90E+08
295,39.412,-20.589,-12.164,3.07E+08
296,40,-19.588,-12.415,2.82E+08
297,40,-20.863,-9.0427,3.28E+08
298,19,12.676,-57.101,1.11E+08
299,19,13.199,-52.128,1.34E+08
300,19,13.721,-47.155,1.00E+08
301,20,11.263,-60.974,2.94E+07
302,20,12.753,-46.802,8.96E+07
303,20,12.256,-51.526,1.19E+08
304,20,11.601,-57.759,8.41E+07
305,19.871,11.699,-61.512,3.24E+07
306,40,-1,-59.685,3.37E+06
307,39.707,-1.0739,-60.388,1.25E+06
308,39,2.88E-11,-59.685,3.58E+06
309,39,-0.33087,-60.428,1.58E+06
310,39.707,-0.29289,-59.685,2.05E+06
311,20,3,-60.106,2.08E+08
312,20,7.1317,-60.54,1.30E+08
313,19.707,2.9261,-60.809,1.59E+08
314,23,0,-59.685,2.43E+08
315,23,-0.33087,-60.428,2.24E+08
316,20.874,0.88431,-59.809,3.54E+08
317,27,7.21E-12,-59.685,7.23E+07
318,31,1.44E-11,-59.685,2.76E+07
319,35,2.16E-11,-59.685,4.71E+06
320,39,0,0,1.18E+08
321,40,-1,0,4.14E+07
322,39.707,-0.29289,0,5.07E+07
323,40,-1,-4.9738,1.96E+08
324,40,-1,-9.9475,2.62E+08
325,40,-1,-14.921,2.73E+08
326,40,-1,-19.895,2.60E+08
327,40,-1,-24.869,2.43E+08
328,40,-1,-29.843,2.11E+08
329,40,-1,-34.816,1.64E+08
330,40,-1,-39.79,1.28E+08
331,40,-1,-44.764,7.70E+07
332,40,-1,-49.738,3.19E+07
333,40,-1,-54.711,2.18E+06
334,39,2.64E-11,-54.711,8.26E+06
335,39,2.40E-11,-49.738,4.59E+07
336,39,2.16E-11,-44.764,9.15E+07
337,39,1.92E-11,-39.79,1.40E+08
338,39,1.68E-11,-34.816,1.65E+08
339,39,1.44E-11,-29.843,2.06E+08
340,39,1.20E-11,-24.869,2.41E+08
341,39,9.61E-12,-19.895,2.53E+08
342,39,7.21E-12,-14.921,2.49E+08
343,39,4.81E-12,-9.9475,2.30E+08
344,39,2.40E-12,-4.9738,1.80E+08
345,40,-9.1498,-58.829,6.37E+06
346,39.707,-9.2237,-59.532,5.37E+06
347,40,-5.0749,-59.257,4.09E+06
348,40,-19,-47.889,1.31E+07
349,39.707,-19.707,-47.889,1.32E+07
350,40,-12.994,-57.69,7.68E+06
351,40,-16.175,-55.249,8.28E+06
352,40,-18.269,-51.831,1.28E+07
353,40,-19,-18.678,1.88E+08
354,39,-20,-18.678,1.71E+08
355,39.707,-19.707,-18.678,1.82E+08
356,39,-20,-23.547,1.11E+08
357,39,-20,-28.415,7.07E+07
358,39,-20,-33.284,2.58E+07
359,39,-20,-38.152,1.40E+07
360,39,-20,-43.02,6.11E+06
361,40,-19,-43.02,2.23E+06
362,40,-19,-38.152,1.93E+07
363,40,-19,-33.284,3.53E+07
364,40,-19,-28.415,8.58E+07
365,40,-19,-23.547,1.26E+08
366,7.934,-20,-42.508,6.08E+07
367,11.832,-20,-41.592,7.40E+07
368,16.573,-20,-39.94,8.04E+07
369,20.645,-20,-37.996,7.74E+07
370,24.492,-20,-35.637,7.64E+07
371,28.073,-20,-32.891,7.00E+07
372,31.348,-20,-29.786,7.02E+07
373,34.281,-20,-26.357,8.74E+07
374,36.841,-20,-22.641,1.15E+08
375,8.5,-20,-44.272,4.54E+07
376,35.376,-24.893,-14.529,1.80E+08
377,36.479,-21.758,-14.982,1.98E+08
378,7.0168,-24.893,-37.594,9.57E+07
379,33.297,-24.893,-18.812,1.58E+08
380,30.701,-24.893,-22.803,1.43E+08
381,27.63,-24.893,-26.441,1.28E+08
382,24.131,-24.893,-29.669,1.15E+08
383,20.257,-24.893,-32.438,1.02E+08
384,16.07,-24.893,-34.703,9.63E+07
385,11.633,-24.893,-36.431,9.24E+07
386,7.3661,-21.073,-39.466,1.12E+08
387,36.549,-21.795,-14.725,2.08E+08
388,40,-11.302,0,1.40E+08
389,40,-4.4339,0,5.21E+07
390,40,-7.8678,0,4.97E+07
391,40,-12.5,-33,1.84E+08
392,40,-10,-30.5,2.62E+07
393,40,-7.5,-33,2.49E+08
394,40,-10,-35.5,8.94E+07
395,40,-11.768,-31.232,1.58E+08
396,40,-8.2322,-31.232,1.91E+08
397,40,-8.2322,-34.768,9.24E+07
398,40,-11.768,-34.768,1.04E+08
399,40,-12.5,-53,1.14E+07
400,40,-10,-50.5,1.35E+07
401,40,-7.5,-53,9.08E+06
402,40,-10,-55.5,1.17E+07
403,40,-11.768,-51.232,1.33E+07
404,40,-8.2322,-51.232,1.05E+07
405,40,-8.2322,-54.768,8.08E+06
406,40,-11.768,-54.768,1.73E+07
407,101.92,20.75,21.5,4.24E+07
408,100.84,21.048,22.5,1.61E+07
409,101.58,20.838,22.226,2.32E+07
410,68.181,-14.592,22.5,6.53E+07
411,97.573,17.484,22.5,3.24E+07
412,94.307,13.92,22.5,4.29E+07
413,91.041,10.356,22.5,4.88E+07
414,87.775,6.7918,22.5,5.41E+07
415,84.51,3.2278,22.5,6.00E+07
416,81.244,-0.3362,22.5,6.48E+07
417,77.978,-3.9002,22.5,6.99E+07
418,74.712,-7.4642,22.5,7.22E+07
419,71.447,-11.028,22.5,7.10E+07
420,68.918,-15.268,21.5,7.57E+07
421,68.702,-15.07,22.207,7.05E+07
422,72.218,-11.666,21.5,8.80E+07
423,75.519,-8.0642,21.5,8.83E+07
424,78.819,-4.4624,21.5,8.36E+07
425,82.12,-0.86061,21.5,7.72E+07
426,85.42,2.7412,21.5,7.03E+07
427,88.721,6.3429,21.5,6.34E+07
428,92.021,9.9447,21.5,5.66E+07
429,95.321,13.546,21.5,4.93E+07
430,98.622,17.148,21.5,4.02E+07
431,46.8,-24,22.5,1.15E+08
432,46.8,-25,21.5,1.20E+08
433,46.8,-24.707,22.207,1.17E+08
434,51.751,-24.589,21.5,8.15E+07
435,56.567,-23.366,21.5,6.98E+07
436,61.114,-21.365,21.5,6.48E+07
437,65.27,-18.64,21.5,6.50E+07
438,64.654,-17.852,22.5,5.99E+07
439,60.637,-20.486,22.5,5.96E+07
440,56.241,-22.42,22.5,6.53E+07
441,51.586,-23.602,22.5,7.84E+07
442,43.636,-24,22.5,1.75E+08
443,43.636,-25,21.5,1.76E+08
444,43.636,-24.707,22.207,1.78E+08
445,37.144,-24.006,23.21,4.35E+08
446,40.37,-24.003,22.678,2.83E+08
447,36.928,-25,22.234,4.81E+08
448,37.08,-24.709,22.922,4.51E+08
449,40.262,-25,21.684,2.67E+08
450,24.266,-29.832,29.382,2.83E+08
451,33.428,-24.609,24.282,5.52E+08
452,30.056,-26.016,25.713,5.26E+08
453,27.022,-27.833,27.422,3.75E+08
454,27.084,-28.199,27.278,3.98E+08
455,30.094,-26.702,25.347,5.87E+08
456,33.361,-25.521,23.631,6.45E+08
457,27.778,-29.832,26.088,4.04E+08
458,30.846,-29.832,22.377,5.32E+08
459,33.421,-29.832,18.309,4.66E+08
460,35.463,-29.832,13.948,4.21E+08
461,36.939,-29.832,9.3652,3.65E+08
462,37.825,-29.832,4.6326,3.18E+08
463,38.107,-29.832,-0.17388,2.42E+08
464,37.781,-29.832,-4.9776,2.00E+08
465,36.852,-29.832,-9.7019,1.62E+08
466,43.056,-25,-2.0409,1.35E+08
467,40.587,-25.518,-4.9477,8.50E+07
468,38.531,-26.696,-7.9907,9.87E+07
469,36.803,-28.193,-11.1,1.39E+08
470,43.093,-25,0.98527,8.54E+07
471,42.626,-25,6.4021,1.23E+08
472,41.793,-25,10.551,1.89E+08
473,40.557,-25,14.599,2.41E+08
474,38.93,-25,18.505,3.28E+08
475,43.236,0.30294,22.5,2.37E+08
476,43.729,-19.138,22.5,1.19E+08
477,43.735,-14.275,22.5,4.33E+07
478,43.655,-9.4132,22.5,4.16E+07
479,43.489,-4.5533,22.5,1.16E+08
480,39.356,2.91E-11,22.753,2.62E+08
481,24.138,-1.04E-13,29.349,8.03E+08
482,27.558,2.07E-11,26.916,6.29E+08
483,31.283,2.30E-11,24.982,4.36E+08
484,35.242,2.43E-11,23.587,3.17E+08
485,24.427,-25,29.423,2.97E+08
486,24.316,-4.1639,29.395,7.26E+08
487,24.442,-8.3298,29.427,5.98E+08
488,24.516,-12.497,29.446,4.77E+08
489,24.538,-16.665,29.452,3.80E+08
490,24.508,-20.833,29.444,3.15E+08
491,84.3,37.043,22.5,1.50E+07
492,96.416,22.846,22.5,1.59E+07
493,92.415,25.452,22.5,1.82E+07
494,88.983,28.772,22.5,2.24E+07
495,86.245,32.683,22.5,2.12E+07
496,57.788,8.1102,22.5,1.62E+08
497,80.986,33.427,22.5,5.64E+07
498,77.672,29.81,22.5,7.13E+07
499,74.358,26.193,22.5,8.53E+07
500,71.044,22.577,22.5,9.73E+07
501,67.73,18.96,22.5,1.10E+08
502,64.416,15.344,22.5,1.22E+08
503,61.102,11.727,22.5,1.36E+08
504,54.698,5.2614,22.5,1.90E+08
505,51.175,2.9704,22.5,1.96E+08
506,47.318,1.3018,22.5,2.07E+08
507,43.477,-24.765,-2.5279,1.41E+08
508,46.8,-25,0.73009,1.23E+08
509,47.174,-24.711,0.13495,1.26E+08
510,63.963,-19.605,5.5,1.20E+08
511,63.795,-19.365,4.7929,1.27E+08
512,59.847,-22.013,5.2471,1.20E+08
513,54.748,-23.926,4.2044,1.15E+08
514,51.045,-24.693,2.8941,1.14E+08
515,68.918,-15.268,5.5,1.37E+08
516,68.702,-15.07,4.7929,1.38E+08
517,66.56,-17.573,5.5,1.21E+08
518,101.92,20.75,5.5,7.83E+07
519,101.58,20.838,4.774,5.26E+07
520,98.622,17.148,5.5,7.70E+07
521,95.321,13.546,5.5,8.69E+07
522,92.021,9.9447,5.5,9.98E+07
523,88.721,6.3429,5.5,1.12E+08
524,85.42,2.7412,5.5,1.25E+08
525,82.12,-0.86061,5.5,1.37E+08
526,78.819,-4.4624,5.5,1.48E+08
527,75.519,-8.0642,5.5,1.56E+08
528,72.218,-11.666,5.5,1.57E+08
529,-13,34.103,119.57,2.44E+06
530,-11.5,32.615,119.76,2.15E+06
531,-12.561,33.051,119.7,1.20E+06
532,-11.5,56.814,109.92,1.04E+07
533,-11.5,34.128,124.43,5.45E+05
534,-11.5,37.206,128.24,3.09E+05
535,-11.5,41.445,130.71,1.25E+05
536,-11.5,46.284,131.5,7.26E+05
537,-11.5,51.086,130.51,1.55E+06
538,-11.5,55.217,127.86,2.38E+06
539,-11.5,58.132,123.92,3.03E+06
540,-11.5,59.447,119.2,3.13E+06
541,-11.5,58.987,114.31,2.60E+06
542,-13,55.613,110.82,1.06E+07
543,-12.561,56.462,110.18,8.28E+06
544,-13,57.668,115.2,9.00E+06
545,-13,57.827,120.03,5.48E+06
546,-13,56.065,124.53,4.15E+06
547,-13,52.669,127.98,2.76E+06
548,-13,48.188,129.8,1.24E+06
549,-13,43.353,129.7,3.30E+05
550,-13,38.947,127.71,6.40E+05
551,-13,35.687,124.14,1.66E+06
552,-12.183,32.384,116.74,3.53E+06
553,-11.5,32.241,116.92,4.41E+06
554,-13,33.295,113.43,6.19E+06
555,-13,33.699,116.5,4.25E+06
556,-12.227,55.628,108.32,1.24E+07
557,-13,53.721,106.93,1.42E+07
558,-11.5,55.896,108.44,1.54E+07
559,-13,49.234,104.89,1.67E+07
560,-13,44.317,104.61,1.39E+07
561,-13,39.623,106.1,1.29E+07
562,-13,35.779,109.18,1.45E+07
563,-13,39.75,118,1.09E+07
564,-13,41.581,113.58,2.02E+07
565,-13,46,111.75,4.83E+07
566,-13,50.419,113.58,4.10E+07
567,-13,52.25,118,1.97E+07
568,-13,50.419,122.42,8.37E+06
569,-13,46,124.25,5.01E+06
570,-13,41.581,122.42,5.80E+06
571,-9.6192,54.911,105.24,3.17E+07
572,-11.068,53.621,105.1,3.23E+07
573,-13,49.785,67.262,4.59E+07
574,-11.5,51.187,67.795,5.26E+07
575,-12.561,50.776,67.639,4.55E+07
576,-11.5,40.911,49.705,2.02E+08
577,-11.5,52.066,63.151,5.09E+07
578,-11.5,51.291,58.49,6.40E+07
579,-11.5,48.957,54.381,9.11E+07
580,-11.5,45.35,51.328,1.37E+08
581,-13,40.651,51.182,2.40E+08
582,-12.561,40.835,50.138,2.25E+08
583,-13,44.596,52.625,1.73E+08
584,-13,47.803,55.338,9.59E+07
585,-13,49.877,58.991,6.24E+07
586,-13,50.566,63.135,3.95E+07
587,-12.227,50.487,69.662,4.21E+07
588,-11.5,50.712,69.473,4.46E+07
589,-13,49.036,71.523,6.30E+07
590,-12.183,37.903,49.342,2.44E+08
591,-13,34.56,50.108,2.49E+08
592,-13,37.605,50.645,3.02E+08
593,-11.5,38.088,49.207,2.46E+08
594,-13,30.502,52.174,2.26E+08
595,-13,27.362,55.47,1.88E+08
596,-13,25.496,59.624,2.85E+08
597,-13,25.117,64.161,1.95E+08
598,-13,26.268,68.566,1.40E+08
599,-13,28.818,72.338,1.82E+08
600,-13,32.477,75.048,1.67E+08
601,-13,36.828,76.388,1.59E+08
602,-13,41.378,76.204,1.09E+08
603,-13,45.607,74.519,8.37E+07
604,-13,32.317,63,1.33E+09
605,-13,34.148,58.581,1.10E+09
606,-13,38.567,56.75,6.18E+08
607,-13,42.986,58.581,2.21E+08
608,-13,44.817,63,7.23E+07
609,-13,42.986,67.419,1.10E+08
610,-13,38.567,69.25,4.03E+08
611,-13,34.148,67.419,9.76E+08
612,-9.5,31.25,48.001,4.15E+08
613,-10.112,34.773,48.623,3.47E+08
614,-11,30.989,49.479,6.42E+08
615,-10.561,31.173,48.434,5.43E+08
616,-11.391,34.476,49.285,3.51E+08
617,-9.5,8.2635,43.948,1.86E+08
618,-11,8.003,45.426,1.00E+08
619,-10.561,8.1872,44.381,9.90E+07
620,-11,12.6,46.236,1.47E+08
621,-11,16.54,46.931,2.93E+08
622,-11,21.452,47.797,4.40E+08
623,-11,26.392,48.668,5.55E+08
624,-9.5,26.652,47.191,4.23E+08
625,-9.5,22.055,46.38,3.89E+08
626,-9.5,17.458,45.57,2.94E+08
627,-9.5,12.861,44.759,1.71E+08
628,-9.5,7.4633,43.773,3.16E+08
629,-11,7.0828,45.224,2.23E+08
630,-10.561,7.3518,44.198,2.68E+08
631,-12.559,-9.29E-12,34.1,3.85E+08
632,-12.429,-9.20E-12,39.428,8.66E+08
633,-12.699,-9.38E-12,36.771,6.27E+08
634,-11.353,2.8273,43.111,8.33E+08
635,-9.8971,3.5063,41.706,7.52E+08
636,-11.089,0.89985,38.251,6.58E+08
637,12.649,8.2635,43.948,2.90E+08
638,-5.3665,8.2635,43.948,4.56E+08
639,-0.64039,8.2635,43.948,5.08E+08
640,3.7894,8.2635,43.948,4.72E+08
641,8.2192,8.2635,43.948,3.78E+08
642,18.778,1.39E-11,34.1,1.06E+09
643,13.263,4.7047,42.583,7.55E+08
644,14.494,2.0068,40.109,1.10E+09
645,16.374,0.46164,37.104,1.22E+09
646,14.301,1.06E-11,34.1,7.09E+08
647,9.8246,7.26E-12,34.1,4.88E+08
648,5.3479,3.95E-12,34.1,3.27E+08
649,0.87125,6.43E-13,34.1,1.95E+08
650,-3.6054,-2.67E-12,34.1,1.19E+08
651,-8.0821,-5.98E-12,34.1,2.08E+08
652,13,40.911,49.705,1.87E+08
653,-7.1342,40.911,49.705,1.64E+08
654,-1.7,40.911,49.705,1.27E+08
655,3.2,40.911,49.705,1.18E+08
656,8.1,40.911,49.705,1.41E+08
657,11.081,34.618,48.596,3.59E+08
658,11.854,37.818,49.16,1.97E+08
659,12.285,12.65,44.722,4.08E+07
660,11.954,17.038,45.496,2.12E+08
661,11.661,21.429,46.27,3.51E+08
662,11.414,25.823,47.045,4.17E+08
663,11.219,30.22,47.82,4.39E+08
664,-11,53.276,104.31,3.29E+07
665,-9.5,54.763,104.12,3.29E+07
666,-10.561,54.327,104.18,2.34E+07
667,-9.5,50.795,73.979,4.81E+07
668,-9.5,54.196,99.812,2.66E+07
669,-9.5,53.629,95.507,2.78E+07
670,-9.5,53.062,91.201,2.66E+07
671,-9.5,52.496,86.896,1.92E+07
672,-9.5,51.929,82.59,4.04E+06
673,-9.5,51.362,78.285,2.52E+07
674,-11,49.308,74.175,5.88E+07
675,-10.561,50.36,74.037,4.24E+07
676,-11,49.785,77.8,1.42E+07
677,-11,50.301,81.714,1.10E+07
678,-11,51.008,87.092,2.78E+07
679,-11,51.575,91.397,3.12E+07
680,-11,52.142,95.703,2.78E+07
681,-11,52.709,100.01,2.21E+07
682,-9.6632,50.62,72.652,5.09E+07
683,-11.093,49.464,73.156,7.66E+07
684,-10.589,50.311,72.921,5.45E+07
685,13,56.814,109.92,1.27E+07
686,-6.6,56.814,109.92,2.55E+07
687,-1.7,56.814,109.92,3.29E+07
688,3.2,56.814,109.92,3.53E+07
689,8.1,56.814,109.92,3.10E+07
690,9.6192,54.911,105.24,4.34E+07
691,11.018,55.632,107.87,2.56E+07
692,4.8096,54.911,105.24,6.36E+07
693,-7.46E-14,54.911,105.24,6.50E+07
694,-4.8096,54.911,105.24,5.72E+07
695,-11,32.822,109.84,2.19E+07
696,-11,48.891,102.77,4.02E+07
697,-11,44.247,102.6,4.13E+07
698,-11,39.76,103.81,3.97E+07
699,-11,35.834,106.3,3.43E+07
700,-11.39,32.476,113.31,1.17E+07
701,-11,-9.03E-12,51.193,1.00E+09
702,-11,3.7198,48.559,4.41E+08
703,-11,-0.99982,51.751,1.39E+09
704,-11,-12.211,54.643,2.07E+08
705,-11,-8.3364,54.278,4.52E+08
706,-11,-4.5679,53.306,7.93E+08
707,-11,-12.5,54.646,1.83E+08
708,-11,-21.016,54.636,1.08E+08
709,-11,-16.758,54.668,1.67E+08
710,-11,2.6838,71.406,7.94E+07
711,-11,-1.6098,70.723,4.17E+07
712,-11,-5.7495,69.395,6.92E+07
713,-11,-9.6392,67.453,8.86E+07
714,-11,-13.188,64.942,9.50E+07
715,-11,-16.314,61.92,9.22E+07
716,-11,-18.944,58.458,1.00E+08
717,-11,31.354,98.69,3.85E+07
718,-11,30.381,94.04,6.36E+07
719,-11,28.719,89.59,1.08E+08
720,-11,26.407,85.44,1.79E+08
721,-11,23.498,81.685,2.51E+08
722,-11,20.057,78.41,3.23E+08
723,-11,16.162,75.69,3.51E+08
724,-11,11.903,73.587,2.93E+08
725,-11,7.3758,72.148,1.86E+08
726,-11,32.333,106.12,2.29E+07
727,-11,31.844,102.41,2.72E+07
728,-11,27.239,52.421,7.96E+08
729,-11,24.56,56.364,8.50E+08
730,-11,23.205,60.934,7.81E+08
731,-11,23.304,65.7,7.03E+08
732,-11,24.846,70.21,4.91E+08
733,-11,27.686,74.039,3.07E+08
734,-11,31.555,76.823,1.91E+08
735,-11,36.087,78.3,1.33E+08
736,-11,40.854,78.33,8.34E+07
737,-11,45.404,76.91,4.70E+07
738,-14.695,-23.293,40.171,5.29E+07
739,-11.71,-25,43,4.65E+07
740,-9.5,-22.385,55.249,6.17E+07
741,-10.459,-24.719,47.091,7.14E+07
742,-9.755,-23.898,51.043,6.89E+07
743,-10.561,-21.984,55.07,8.33E+07
744,-11.217,-22.394,51.037,1.00E+08
745,-11.894,-23.229,47.33,7.95E+07
746,-13.062,-23.512,43.662,5.69E+07
747,-9.5,2.5619,72.901,1.17E+08
748,-10.561,2.5976,72.463,7.58E+07
749,-9.5,-20.204,59.272,5.09E+07
750,-9.5,-17.436,62.916,4.22E+07
751,-9.5,-14.145,66.097,3.57E+07
752,-9.5,-10.41,68.74,3.18E+07
753,-9.5,-6.3153,70.784,4.10E+07
754,-9.5,-1.9577,72.182,5.79E+07
755,-9.5,29.867,98.886,2.56E+07
756,-10.561,30.303,98.828,2.95E+07
757,-9.5,7.0305,73.607,1.61E+08
758,-9.5,11.342,74.978,2.52E+08
759,-9.5,14.882,76.683,2.59E+08
760,-9.5,19.108,79.572,2.44E+08
761,-9.5,21.949,82.218,2.07E+08
762,-9.5,25.156,86.267,1.43E+08
763,-9.5,27.103,89.682,9.48E+07
764,-9.5,28.94,94.458,4.75E+07
765,-9.5,31.335,110.04,1.30E+07
766,-10.561,31.771,109.98,1.40E+07
767,-9.5,30.356,102.6,2.07E+07
768,-9.5,30.846,106.32,1.72E+07
769,-10.045,31.773,113.37,9.77E+06
770,9.5,29.867,98.886,7.54E+07
771,-4.75,29.867,98.886,2.31E+07
772,0,29.867,98.886,3.57E+07
773,4.75,29.867,98.886,5.82E+07
774,9.5,31.335,110.04,1.31E+07
775,9.5,30.846,106.32,2.92E+07
776,9.5,30.258,101.86,5.40E+07
777,13,32.615,119.76,4.49E+06
778,11.381,32.209,116.68,8.70E+06
779,10.071,31.785,113.45,7.55E+06
780,-6.6,32.615,119.76,4.89E+06
781,-1.7,32.615,119.76,5.90E+06
782,3.2,32.615,119.76,6.96E+06
783,8.1,32.615,119.76,7.53E+06
784,-5.5,2.5619,72.901,9.49E+07
785,-5.5,10.488,74.649,1.36E+08
786,-5.5,6.5842,73.505,9.75E+07
787,-4,19.769,80.128,8.12E+07
788,-4.9064,16.96,77.971,1.18E+08
789,-5.3568,13.836,76.119,1.37E+08
790,-2.9412,21.023,81.279,6.81E+07
791,-2.5,21.133,81.386,7.04E+07
792,2.5,21.133,81.386,1.17E+08
793,2.9412,21.023,81.279,1.26E+08
794,4,19.769,80.128,1.56E+08
795,5.5,10.488,74.649,2.29E+08
796,5.3707,13.678,76.038,2.36E+08
797,4.9041,16.96,77.971,2.04E+08
798,5.5,2.5619,72.901,1.34E+08
799,5.5,6.5842,73.505,1.68E+08
800,9.5,2.5619,72.901,1.43E+08
801,9.5,28.94,94.458,1.28E+08
802,9.5,27.098,89.672,1.96E+08
803,9.5,25.156,86.267,2.55E+08
804,9.5,22.385,82.691,3.43E+08
805,9.5,19.108,79.572,4.13E+08
806,9.5,15.398,76.981,4.45E+08
807,9.5,11.342,74.978,4.12E+08
808,9.5,7.5774,73.742,3.10E+08
809,-11,-25,43,7.90E+07
810,-2.9994,-25,43,2.52E+08
811,-6.9997,-25,43,1.63E+08
812,2.9994,-25,43,2.54E+08
813,-4.34E-15,-25,43.09,2.78E+08
814,11.71,-25,43,4.89E+07
815,7.3548,-25,43,1.59E+08
816,9.5,-22.385,55.249,6.90E+07
817,9.7311,-23.849,51.225,6.91E+07
818,10.458,-24.72,47.091,6.34E+07
819,9.5,-1.9577,72.182,6.56E+07
820,9.5,-6.3153,70.784,3.65E+07
821,9.5,-10.41,68.74,3.01E+07
822,9.5,-14.145,66.097,4.27E+07
823,9.5,-17.436,62.916,5.36E+07
824,9.5,-20.204,59.272,6.19E+07
825,5.5,-12.13,67.628,5.58E+07
826,5.5,-8.7507,69.663,7.36E+07
827,5.5,-5.1332,71.237,8.39E+07
828,5.5,-1.3405,72.322,9.35E+07
829,4,-16.312,64.114,3.03E+07
830,5.2205,-14.411,65.874,4.21E+07
831,3.7691,-16.465,63.958,2.84E+07
832,2.5,-16.813,63.596,2.66E+07
833,-2.5,-16.813,63.596,3.44E+07
834,-3.7691,-16.465,63.958,4.79E+07
835,-4,-16.312,64.114,5.06E+07
836,-5.5,-12.13,67.628,7.24E+07
837,-5.2204,-14.411,65.874,6.00E+07
838,-5.5,-1.3405,72.322,7.02E+07
839,-5.5,-5.1332,71.237,7.20E+07
840,-5.5,-8.3264,69.878,7.78E+07
841,9.6632,50.62,72.652,5.63E+07
842,11.093,49.464,73.156,9.03E+07
843,10.589,50.311,72.921,6.06E+07
844,13,51.187,67.795,5.49E+07
845,11.785,50.086,70.8,5.99E+07
846,11.07,50.623,70.021,5.70E+07
847,9.5,50.795,73.979,6.02E+07
848,11,49.308,74.175,8.53E+07
849,10.561,50.36,74.037,6.10E+07
850,9.5,54.763,104.12,4.15E+07
851,11,53.276,104.31,4.41E+07
852,10.561,54.327,104.18,3.18E+07
853,11,52.709,100.01,3.39E+07
854,11,52.142,95.703,3.12E+07
855,11,51.575,91.397,2.50E+07
856,11,51.008,87.092,1.80E+07
857,11,50.442,82.786,1.95E+07
858,11,49.875,78.481,4.18E+07
859,9.5,51.201,77.064,5.53E+07
860,9.5,51.842,81.93,4.33E+07
861,9.5,52.496,86.896,2.79E+07
862,9.5,53.062,91.201,2.06E+07
863,9.5,53.629,95.507,2.76E+07
864,9.5,54.196,99.812,2.97E+07
865,11.068,53.621,105.1,4.15E+07
866,10.571,54.53,105.09,3.38E+07
867,11.677,54.754,107.08,2.22E+07
868,11,27.862,51.791,6.61E+08
869,11,45.325,76.949,8.76E+07
870,11,40.678,78.356,1.06E+08
871,11,35.825,78.256,1.67E+08
872,11,31.241,76.659,2.45E+08
873,11,27.375,73.723,4.22E+08
874,11,24.607,69.735,6.07E+08
875,11,23.208,65.087,8.03E+08
876,11,23.316,60.234,8.84E+08
877,11,24.919,55.652,8.73E+08
878,11.036,31.083,49.861,5.78E+08
879,13,48.795,71.811,8.35E+07
880,13,45.178,74.771,1.11E+08
881,13,40.768,76.319,1.48E+08
882,13,36.094,76.272,1.97E+08
883,13,31.716,74.633,1.99E+08
884,13,28.16,71.599,1.95E+08
885,13,25.851,67.535,1.41E+08
886,13,25.067,62.927,1.60E+08
887,13,25.901,58.328,2.09E+08
888,13,28.254,54.289,2.04E+08
889,13,31.842,51.294,2.17E+08
890,13,36.237,49.703,2.12E+08
891,11,32.822,109.84,3.50E+07
892,11,35.834,106.3,8.23E+07
893,11,39.76,103.81,9.56E+07
894,11,44.247,102.6,9.29E+07
895,11,49.55,102.91,7.15E+07
896,11,31.354,98.69,8.64E+07
897,11,31.844,102.41,6.15E+07
898,11,32.333,106.12,4.30E+07
899,11,2.6838,71.406,1.28E+08
900,11,7.3758,72.148,2.88E+08
901,11,11.903,73.587,4.31E+08
902,11,16.162,75.69,4.95E+08
903,11,20.057,78.41,4.65E+08
904,11,23.498,81.685,3.67E+08
905,11,26.407,85.44,2.73E+08
906,11,28.719,89.59,1.90E+08
907,11,30.381,94.04,1.31E+08
908,11,-21.016,54.636,1.04E+08
909,11,-18.944,58.458,9.83E+07
910,11,-16.314,61.92,9.49E+07
911,11,-13.188,64.942,9.15E+07
912,11,-9.6392,67.453,7.70E+07
913,11,-5.7495,69.395,4.75E+07
914,11,-1.6098,70.723,3.42E+07
915,11,22.999,52.398,5.36E+08
916,11,18.128,52.931,3.84E+08
917,11,13.249,53.393,2.10E+08
918,11,8.3646,53.783,7.79E+07
919,11,3.4746,54.102,1.10E+08
920,11,-1.4195,54.35,1.75E+08
921,11,-6.3166,54.528,2.07E+08
922,11,-11.216,54.634,1.96E+08
923,11,-16.116,54.671,1.63E+08
924,13,32.764,115.35,8.23E+06
925,13,34.33,111.21,1.85E+07
926,13,37.148,107.81,3.54E+07
927,13,40.914,105.49,3.40E+07
928,13,45.225,104.52,2.35E+07
929,13,49.619,104.99,3.38E+07
930,13,53.625,106.86,2.39E+07
931,11.367,32.486,113.19,1.16E+07
932,12.12,32.38,116.5,7.74E+06
933,10.561,31.771,109.98,1.51E+07
934,10.561,30.303,98.828,8.00E+07
935,10.561,2.5976,72.463,1.32E+08
936,10.561,-21.984,55.07,8.38E+07
937,13.105,-23.512,43.552,1.09E+08
938,12.693,-24.565,43.389,5.33E+07
939,11.913,-23.241,47.255,7.94E+07
940,11.219,-22.408,51,9.44E+07
941,12.457,-25,41.265,5.20E+07
942,13.817,-23.514,41.899,1.45E+08
943,13.414,-24.565,41.712,9.17E+07
944,22.946,-29.832,30.424,2.86E+08
945,14.804,-25.533,38.081,2.26E+08
946,17.393,-26.723,35.274,3.51E+08
947,20.117,-28.214,32.749,3.60E+08
948,20.355,-27.667,32.703,3.70E+08
949,17.95,-25.697,35.333,3.98E+08
950,15.741,-24.169,38.388,2.98E+08
951,7.777,-25,42.397,1.72E+08
952,-20.009,-17.195,-45.831,7.95E+07
953,-20,-14.625,-46.574,3.00E+08
954,-20,-16.004,-46.419,2.02E+08
955,-20.002,-16.668,-46.214,9.53E+07
956,-20.004,-16.977,-46.076,7.38E+07
957,-22.089,-13.435,-44.405,3.07E+08
958,-21.572,-12.201,-45.862,5.35E+08
959,-25,-12.5,-44.603,2.02E+08
960,-24.475,-10.974,-46.008,2.60E+08
961,-24.616,-12.024,-45.63,2.53E+08
962,-50.045,-12.5,-63.787,1.06E+06
963,-50.102,-11,-65.734,1.43E+06
964,-50.061,-12.118,-65.067,6.88E+05
965,-25.809,-11,-46.755,6.19E+07
966,-46.631,-11,-63.023,8.09E+05
967,-43.161,-11,-60.312,3.32E+06
968,-39.69,-11,-57.6,7.44E+06
969,-36.22,-11,-54.889,1.40E+07
970,-32.75,-11,-52.177,2.12E+07
971,-29.279,-11,-49.466,2.45E+07
972,-26.732,-12.5,-45.573,7.90E+07
973,-26.079,-12.061,-46.408,6.23E+07
974,-30.618,-12.5,-48.608,1.13E+07
975,-34.503,-12.5,-51.644,1.28E+07
976,-38.389,-12.5,-54.68,9.33E+06
977,-42.274,-12.5,-57.715,5.45E+06
978,-46.16,-12.5,-60.751,2.03E+06
979,-20,-12.211,-46.55,4.22E+08
980,-22.765,-8.17E-14,-44.377,1.15E+08
981,-25.405,-7.0747,-46.439,1.38E+08
982,-24.458,-3.3066,-45.699,1.13E+08
983,-20,-0.58986,-42.852,9.33E+08
984,-20,-4.2058,-44.818,5.64E+08
985,-20,-8.1231,-46.08,4.64E+08
986,-50.102,-10,-65.734,1.23E+06
987,-61.73,-10,-74.819,1.14E+05
988,-57.854,-10,-71.791,1.23E+06
989,-53.978,-10,-68.763,1.64E+06
990,-61.73,-2.5,-74.819,4.24E+05
991,-61.73,-6.25,-74.819,4.12E+05
992,-50.102,-2.5,-65.734,9.74E+05
993,-53.978,-2.5,-68.763,5.83E+05
994,-57.854,-2.5,-71.791,6.84E+05
995,-50.102,0,-65.734,6.21E+05
996,-26.67,-7.01E-14,-47.428,4.72E+07
997,-30.576,-5.84E-14,-50.479,3.50E+07
998,-34.481,-4.67E-14,-53.53,2.37E+07
999,-38.386,-3.50E-14,-56.581,1.32E+07
1000,-42.291,-2.34E-14,-59.632,6.72E+06
1001,-46.197,-1.17E-14,-62.683,2.98E+06
1002,-67.906,-12.5,-44.295,1.86E+06
1003,-63.227,-12.5,-45.378,3.88E+06
1004,-58.942,-12.5,-47.544,5.58E+06
1005,-55.296,-12.5,-50.669,7.47E+06
1006,-52.5,-12.5,-54.574,5.10E+06
1007,-50.716,-12.5,-59.032,2.85E+06
1008,-69.851,-11,-44.182,2.47E+06
1009,-69.183,-12.118,-44.2,1.59E+06
1010,-69.851,-10,-44.182,3.19E+06
1011,-67.906,-11.5,-44.295,3.71E+06
1012,-69.183,-11.118,-44.2,3.53E+06
1013,-50.045,-11.5,-63.787,1.71E+06
1014,-63.227,-11.5,-45.378,5.62E+06
1015,-58.942,-11.5,-47.544,6.63E+06
1016,-55.296,-11.5,-50.669,7.59E+06
1017,-52.5,-11.5,-54.574,6.19E+06
1018,-50.716,-11.5,-59.032,3.96E+06
1019,-50.061,-11.118,-65.067,1.27E+06
1020,-59.182,-12.5,55.414,6.29E+07
1021,-61.118,-11,55.64,1.04E+08
1022,-60.291,-12.22,55.52,5.02E+07
1023,-42.345,-11,26.734,1.06E+08
1024,-59.123,-11,52.569,1.27E+08
1025,-55.754,-11,47.381,1.31E+08
1026,-53.072,-11,43.252,1.50E+08
1027,-50.391,-11,39.122,1.68E+08
1028,-47.709,-11,34.993,1.74E+08
1029,-45.027,-11,30.863,1.58E+08
1030,-41.087,-12.5,27.551,1.49E+08
1031,-41.977,-12.061,26.973,1.41E+08
1032,-43.672,-12.5,31.531,1.97E+08
1033,-46.257,-12.5,35.512,2.13E+08
1034,-48.842,-12.5,39.492,2.07E+08
1035,-51.427,-12.5,43.473,1.87E+08
1036,-54.012,-12.5,47.453,1.66E+08
1037,-56.597,-12.5,51.434,1.45E+08
1038,-39.279,-10.993,20.557,1.78E+08
1039,-40.634,-10.997,23.734,1.34E+07
1040,-37.868,-12.5,21.066,1.28E+08
1041,-38.868,-12.058,20.706,1.48E+08
1042,-39.291,-12.5,24.401,9.65E+07
1043,-37.883,-17.486,5.8534,3.16E+08
1044,-38.172,-11.67,16.664,3.53E+08
1045,-37.626,-13.25,12.903,4.00E+08
1046,-37.552,-15.276,9.3164,3.79E+08
1047,-37.427,-15.832,9.5205,3.76E+08
1048,-37.203,-14.295,13.259,3.95E+08
1049,-37.299,-13.059,17.109,3.24E+08
1050,-11,-17.486,36.721,2.25E+08
1051,-36.856,-17.486,10.537,3.43E+08
1052,-35.253,-17.486,15.055,3.30E+08
1053,-33.097,-17.486,19.338,3.33E+08
1054,-30.424,-17.486,23.319,3.41E+08
1055,-27.276,-17.486,26.934,3.71E+08
1056,-23.7,-17.486,30.128,3.43E+08
1057,-19.753,-17.486,32.851,3.09E+08
1058,-15.498,-17.486,35.06,2.61E+08
1059,-11,-12.769,40.24,2.74E+08
1060,-11,-14.561,37.716,2.85E+08
1061,-14.661,-12.522,40.283,5.13E+08
1062,-14.339,-12.5,40.892,4.45E+08
1063,-18.494,-12.5,39.188,5.47E+08
1064,-22.451,-12.5,37.063,5.14E+08
1065,-26.167,-12.5,34.54,4.48E+08
1066,-29.602,-12.5,31.646,3.86E+08
1067,-32.719,-12.5,28.412,3.25E+08
1068,-35.699,-12.5,24.563,2.31E+08
1069,-42.162,-1.5,26.452,2.23E+08
1070,-42.276,-6.2486,26.626,7.11E+07
1071,-37.638,-1.4441,5.6268,2.59E+08
1072,-37.309,-1.4544,9.9672,4.24E+08
1073,-37.609,-1.4655,14.31,4.51E+08
1074,-38.535,-1.4769,18.563,3.94E+08
1075,-40.064,-1.4885,22.638,3.21E+08
1076,-37.868,-12.5,5.8395,3.02E+08
1077,-37.745,-5.1282,5.7256,2.66E+08
1078,-37.822,-8.8136,5.7964,2.76E+08
1079,-61.118,-10,55.64,1.04E+08
1080,-69.154,-10,68.016,2.28E+07
1081,-66.475,-10,63.891,5.44E+07
1082,-63.796,-10,59.765,8.30E+07
1083,-69.154,-2.5,68.016,2.26E+07
1084,-69.154,-6.25,68.016,3.89E+07
1085,-61.118,-2.5,55.64,9.53E+07
1086,-63.796,-2.5,59.765,8.45E+07
1087,-66.475,-2.5,63.891,5.43E+07
1088,-61.118,-1.5,55.64,1.04E+08
1089,-44.87,-1.5,30.622,1.60E+08
1090,-47.794,-1.5,35.124,1.34E+08
1091,-50.286,-1.5,38.961,1.21E+08
1092,-52.994,-1.5,43.131,1.14E+08
1093,-55.702,-1.5,47.301,1.07E+08
1094,-58.41,-1.5,51.47,1.12E+08
1095,-42.252,-10.993,-13.424,1.81E+08
1096,-40.951,-12.5,-14.17,1.93E+08
1097,-41.873,-12.058,-13.642,1.96E+08
1098,-38.324,-17.486,0.8139,3.17E+08
1099,-39.703,-13.059,-10.373,3.58E+08
1100,-38.941,-14.295,-6.5968,4.07E+08
1101,-38.512,-15.832,-2.8766,3.75E+08
1102,-38.6,-15.276,-2.654,3.55E+08
1103,-39.295,-13.25,-6.1732,3.66E+08
1104,-40.485,-11.67,-9.7822,3.14E+08
1105,-46.344,-11,-18.974,1.42E+07
1106,-44.138,-10.997,-16.317,7.68E+07
1107,-45.247,-12.5,-19.997,2.58E+07
1108,-46.023,-12.061,-19.274,1.39E+07
1109,-42.931,-12.5,-17.207,7.83E+07
1110,-64.669,-12.5,-40.824,5.12E+06
1111,-61.432,-12.5,-37.353,9.41E+06
1112,-58.195,-12.5,-33.882,1.41E+07
1113,-54.958,-12.5,-30.411,1.80E+07
1114,-51.721,-12.5,-26.94,1.82E+07
1115,-48.484,-12.5,-23.469,9.64E+06
1116,-49.702,-11,-22.575,1.95E+07
1117,-53.06,-11,-26.177,2.49E+07
1118,-56.419,-11,-29.778,2.09E+07
1119,-59.777,-11,-33.379,1.45E+07
1120,-63.135,-11,-36.98,8.89E+06
1121,-66.493,-11,-40.581,5.35E+06
1122,-46.115,-1.5,-18.729,1.84E+07
1123,-46.272,-6.8762,-18.896,2.92E+07
1124,-69.851,-1.5,-44.182,3.46E+06
1125,-66.46,-1.5,-40.546,5.64E+06
1126,-63.069,-1.5,-36.91,8.62E+06
1127,-59.678,-1.5,-33.273,1.26E+07
1128,-56.288,-1.5,-29.637,1.74E+07
1129,-52.897,-1.5,-26.001,1.91E+07
1130,-49.506,-1.5,-22.365,1.49E+07
1131,-69.851,-2.5,-44.182,3.86E+06
1132,-79.915,-2.5,-54.974,1.85E+05
1133,-76.56,-2.5,-51.377,2.01E+06
1134,-73.205,-2.5,-47.779,2.93E+06
1135,-79.915,-10,-54.974,4.67E+05
1136,-79.915,-6.25,-54.974,4.71E+05
1137,-73.205,-10,-47.779,2.35E+06
1138,-76.56,-10,-51.377,1.76E+06
1139,-38.307,-12.5,0.82499,2.66E+08
1140,-38.043,-1.4441,0.99446,9.32E+07
1141,-38.254,-8.8136,0.85931,2.09E+08
1142,-38.166,-5.1282,0.9158,1.50E+08
1143,-43.736,-1.4901,-15.832,4.42E+07
1144,-41.173,-1.4769,-11.589,7.78E+07
1145,-39.522,-1.4655,-7.5617,9.29E+07
1146,-38.473,-1.4544,-3.3372,6.28E+07
1147,-67.906,0,-44.295,1.52E+06
1148,-69.183,-0.38161,-44.2,2.09E+06
1149,-45.018,-3.33E-11,-19.752,3.00E+07
1150,-45.794,-0.43934,-19.028,1.72E+07
1151,-48.288,-2.85E-11,-23.258,1.30E+07
1152,-51.693,-3.82E-11,-26.909,1.01E+07
1153,-54.827,-1.90E-11,-30.27,1.07E+07
1154,-58.097,-1.43E-11,-33.777,9.36E+06
1155,-61.366,-9.51E-12,-37.283,7.11E+06
1156,-64.636,-4.75E-12,-40.789,4.70E+06
1157,-36.545,-2.70E-11,0.95529,1.10E+08
1158,-37.585,-0.41975,0.98249,9.58E+07
1159,-36.995,-2.73E-11,-3.5924,3.07E+07
1160,-38.097,-2.82E-11,-8.0276,5.36E+07
1161,-39.83,-2.94E-11,-12.256,5.96E+07
1162,-42.153,-3.12E-11,-16.191,5.01E+07
1163,-36.156,-2.67E-11,5.4052,2.36E+08
1164,-37.185,-0.41975,5.5591,2.53E+08
1165,-40.904,-3.02E-11,27.269,2.86E+08
1166,-41.794,-0.43934,26.691,2.61E+08
1167,-38.701,-2.86E-11,23.265,3.37E+08
1168,-37.096,-2.74E-11,18.986,3.61E+08
1169,-36.124,-2.67E-11,14.521,3.74E+08
1170,-35.81,-2.65E-11,9.962,3.39E+08
1171,-59.182,0,55.414,5.96E+07
1172,-60.457,-0.38161,55.542,7.92E+07
1173,-56.571,-4.32E-12,51.393,1.39E+08
1174,-53.96,-8.64E-12,47.373,1.48E+08
1175,-51.349,-1.30E-11,43.352,1.62E+08
1176,-48.738,-1.73E-11,39.331,1.77E+08
1177,-45.735,-3.38E-11,34.708,2.00E+08
1178,-43.516,-2.59E-11,31.29,2.33E+08
1179,-22.115,-17.486,-31.31,3.22E+08
1180,-25.765,-17.486,-28.382,2.93E+08
1181,-29.031,-17.486,-25.032,3.26E+08
1182,-31.864,-17.486,-21.309,3.30E+08
1183,-34.223,-17.486,-17.268,3.53E+08
1184,-36.072,-17.486,-12.97,3.76E+08
1185,-37.383,-17.486,-8.4788,3.83E+08
1186,-38.138,-17.486,-3.8612,3.65E+08
1187,-22.11,-24.893,-31.204,2.09E+08
1188,-22.114,-21.19,-31.277,2.76E+08
1189,-7.0168,-24.893,-37.594,1.34E+08
1190,-11.027,-24.893,-36.619,1.41E+08
1191,-14.91,-24.893,-35.217,1.67E+08
1192,-18.618,-24.893,-33.405,1.75E+08
1193,-4.8642,-24.685,-37.937,1.32E+08
1194,-1.87E-09,-24.584,-38.25,1.10E+08
1195,-4.55E-15,-47.505,-37.12,5.63E+07
1196,0,-29.173,-38.129,4.67E+07
1197,0,-33.76,-37.956,2.21E+07
1198,0,-38.345,-37.729,3.63E+07
1199,0,-42.926,-37.451,5.03E+07
1200,-4.55E-15,-47.505,37.12,1.30E+08
1201,-4.8451,-47.505,36.802,1.27E+08
1202,-9.6073,-47.505,35.855,1.44E+08
1203,-14.205,-47.505,34.294,1.42E+08
1204,-18.56,-47.505,32.147,1.48E+08
1205,-22.597,-47.505,29.449,1.40E+08
1206,-26.248,-47.505,26.248,1.32E+08
1207,-29.449,-47.505,22.597,1.30E+08
1208,-32.147,-47.505,18.56,1.30E+08
1209,-34.294,-47.505,14.205,1.28E+08
1210,-35.855,-47.505,9.6073,1.25E+08
1211,-36.802,-47.505,4.8451,1.10E+08
1212,-37.12,-47.505,-1.05E-14,1.06E+08
1213,-36.802,-47.505,-4.8451,9.35E+07
1214,-35.855,-47.505,-9.6073,9.27E+07
1215,-34.294,-47.505,-14.205,9.63E+07
1216,-32.147,-47.505,-18.56,9.51E+07
1217,-29.449,-47.505,-22.597,9.47E+07
1218,-26.248,-47.505,-26.248,9.49E+07
1219,-22.597,-47.505,-29.449,9.59E+07
1220,-18.56,-47.505,-32.147,9.22E+07
1221,-14.205,-47.505,-34.294,8.61E+07
1222,-9.6073,-47.505,-35.855,7.28E+07
1223,-4.8451,-47.505,-36.802,6.21E+07
1224,4.8451,-47.505,-36.802,5.59E+07
1225,9.6073,-47.505,-35.855,5.41E+07
1226,14.205,-47.505,-34.294,5.03E+07
1227,18.56,-47.505,-32.147,5.09E+07
1228,22.597,-47.505,-29.449,5.39E+07
1229,26.248,-47.505,-26.248,6.22E+07
1230,29.449,-47.505,-22.597,7.51E+07
1231,32.147,-47.505,-18.56,8.88E+07
1232,34.294,-47.505,-14.205,1.06E+08
1233,35.855,-47.505,-9.6073,1.20E+08
1234,36.802,-47.505,-4.8451,1.35E+08
1235,37.12,-47.505,1.42E-15,1.43E+08
1236,36.802,-47.505,4.8451,1.48E+08
1237,35.855,-47.505,9.6073,1.50E+08
1238,34.294,-47.505,14.205,1.47E+08
1239,32.147,-47.505,18.56,1.44E+08
1240,29.449,-47.505,22.597,1.34E+08
1241,26.248,-47.505,26.248,1.57E+08
1242,22.597,-47.505,29.449,2.00E+08
1243,18.56,-47.505,32.147,2.26E+08
1244,14.205,-47.505,34.294,2.26E+08
1245,9.6073,-47.505,35.855,1.94E+08
1246,4.8451,-47.505,36.802,1.64E+08
1247,4.8642,-24.685,-37.937,1.01E+08
1248,22.924,9.69E-05,30.308,8.65E+08
1249,22.978,-25,30.568,3.21E+08
1250,22.996,-20.833,30.641,3.71E+08
1251,23.003,-16.665,30.667,4.52E+08
1252,22.999,-12.498,30.647,5.56E+08
1253,22.985,-8.3306,30.58,6.83E+08
1254,22.961,-4.1646,30.467,8.19E+08
1255,2.6517,-29.832,38.015,1.95E+08
1256,7.0078,-29.832,37.457,1.49E+08
1257,11.271,-29.832,36.402,1.28E+08
1258,15.384,-29.832,34.864,2.00E+08
1259,19.293,-29.832,32.862,2.76E+08
1260,-2.6517,-29.832,38.015,2.39E+08
1261,-3.47E-15,-29.832,38.107,2.28E+08
1262,-11,-29.832,36.485,1.44E+08
1263,-6.8685,-29.832,37.483,2.32E+08
1264,-11,-25,36.625,1.46E+08
1265,-11,-21.243,36.691,1.73E+08
1266,-50.244,0,-61.341,1.32E+06
1267,-51.343,0,-57.085,1.49E+06
1268,-53.344,0,-53.172,1.29E+06
1269,-56.152,0,-49.79,1.42E+06
1270,-59.631,0,-47.104,1.74E+06
1271,-63.613,0,-45.242,1.73E+06
1272,-50.045,-1,-63.787,1.89E+06
1273,-67.906,-1,-44.295,3.80E+06
1274,-50.716,-1,-59.032,2.56E+06
1275,-52.5,-1,-54.574,2.38E+06
1276,-55.296,-1,-50.669,2.53E+06
1277,-58.942,-1,-47.544,2.78E+06
1278,-63.227,-1,-45.378,3.28E+06
1279,-69.183,-1.3816,-44.2,4.32E+06
1280,-11.022,-8.15E-12,49.86,1.41E+09
1281,-19.782,-1.46E-11,51.043,4.29E+08
1282,-15.614,-1.15E-11,48.814,7.63E+08
1283,-18.667,-1.5,52.046,4.23E+08
1284,-18.993,-0.43934,51.752,4.52E+08
1285,-14.881,-1.1649,50.212,1.24E+09
1286,-38.209,0,71.508,7.03E+07
1287,-37.926,-1.5,73.436,1.12E+08
1288,-38.002,-0.38161,72.772,6.52E+07
1289,-34.716,-1.5,69.871,1.17E+08
1290,-31.506,-1.5,66.306,1.14E+08
1291,-28.296,-1.5,62.741,1.21E+08
1292,-25.087,-1.5,59.176,1.31E+08
1293,-21.877,-1.5,55.611,1.48E+08
1294,-22.853,-1.22E-11,54.454,2.65E+08
1295,-25.924,-9.75E-12,57.864,2.04E+08
1296,-28.995,-7.31E-12,61.275,1.73E+08
1297,-32.066,-4.87E-12,64.686,1.54E+08
1298,-35.137,-2.44E-12,68.097,1.37E+08
1299,38,0,0,1.91E+08
1300,37.9,0,2.7573,9.01E+07
1301,23,1.70E-11,-37.984,2.91E+08
1302,23,1.36E-11,-42.325,2.93E+08
1303,23,1.02E-11,-46.665,3.15E+08
1304,23,6.80E-12,-51.005,3.16E+08
1305,23,3.40E-12,-55.345,2.90E+08
1306,-20.203,-1.49E-11,-37.984,6.77E+08
1307,-15.403,-1.14E-11,-37.984,4.31E+08
1308,-10.603,-7.84E-12,-37.984,2.15E+08
1309,-5.8022,-4.29E-12,-37.984,1.11E+08
1310,-1.0018,-7.41E-13,-37.984,6.60E+07
1311,3.7985,2.81E-12,-37.984,8.01E+07
1312,8.5989,6.36E-12,-37.984,1.50E+08
1313,13.399,9.91E-12,-37.984,2.42E+08
1314,18.2,1.35E-11,-37.984,3.32E+08
1315,-20.033,-1.48E-11,-40.686,9.50E+08
1316,-20.001,0,-42.217,9.97E+08
1317,-20,-1.80E-11,-42.447,1.03E+09
1318,-54.387,0,55.668,6.52E+07
1319,-49.79,0,57.057,5.59E+07
1320,-45.657,0,59.501,6.11E+07
1321,-42.226,0,62.861,5.48E+07
1322,-39.694,0,66.941,6.74E+07
1323,-11.559,0,44.153,8.94E+08
1324,-11.208,-8.42E-12,46.999,8.69E+08
1325,-11.831,-8.75E-12,42.491,8.53E+08
1326,20.764,1.53E-11,32.108,9.88E+08
1327,39.356,2.91E-11,9.0311,1.02E+08
1328,39.356,2.91E-11,14.127,1.63E+08
1329,39.356,2.91E-11,18.44,2.17E+08
1330,-3.92E-15,5.43E-11,-32,5.05E+07
1331,-4.8848,2.55E-11,-31.625,5.05E+07
1332,-9.6551,2.20E-11,-30.509,8.35E+07
1333,-14.199,1.86E-11,-28.677,9.55E+07
1334,-18.41,1.55E-11,-26.174,1.39E+08
1335,-22.19,1.27E-11,-23.057,1.71E+08
1336,-25.449,1.03E-11,-19.399,1.61E+08
1337,-28.112,8.31E-12,-15.287,1.19E+08
1338,-30.116,6.83E-12,-10.817,5.32E+07
1339,-31.415,5.87E-12,-6.0925,6.56E+07
1340,-31.977,5.45E-12,-1.2257,1.42E+08
1341,-31.789,5.59E-12,3.6699,1.58E+08
1342,-30.856,6.28E-12,8.4794,1.30E+08
1343,-29.2,7.51E-12,13.09,1.50E+08
1344,-26.86,9.24E-12,17.394,1.96E+08
1345,-23.89,1.14E-11,21.29,2.23E+08
1346,-20.36,1.40E-11,24.688,2.27E+08
1347,-16.353,1.70E-11,27.506,2.03E+08
1348,-11.962,2.02E-11,29.68,1.33E+08
1349,-7.2913,2.37E-11,31.158,7.76E+07
1350,-2.4496,2.73E-11,31.906,1.58E+08
1351,2.4496,3.09E-11,31.906,2.68E+08
1352,7.2913,3.45E-11,31.158,3.86E+08
1353,11.962,3.79E-11,29.68,4.25E+08
1354,16.353,4.12E-11,27.506,4.12E+08
1355,20.36,4.41E-11,24.688,4.32E+08
1356,23.89,4.68E-11,21.29,4.02E+08
1357,26.86,4.89E-11,17.394,3.05E+08
1358,29.2,5.07E-11,13.09,1.82E+08
1359,30.856,5.19E-11,8.4794,8.21E+07
1360,31.789,5.26E-11,3.6699,1.20E+08
1361,31.977,5.27E-11,-1.2257,9.85E+07
1362,31.415,5.23E-11,-6.0925,8.35E+07
1363,30.116,5.14E-11,-10.817,6.14E+07
1364,28.112,4.99E-11,-15.287,7.87E+07
1365,25.449,4.79E-11,-19.399,1.13E+08
1366,22.19,4.55E-11,-23.057,1.31E+08
1367,18.41,4.27E-11,-26.174,1.24E+08
1368,14.199,3.96E-11,-28.677,9.80E+07
1369,9.6551,3.62E-11,-30.509,6.56E+07
1370,4.8848,3.27E-11,-31.625,6.48E+07
1371,-62.653,-11.5,-73.637,6.73E+05
1372,-62,-11.061,-74.473,2.57E+05
1373,-53.197,-11.5,-66.249,1.23E+06
1374,-56.349,-11.5,-68.712,1.16E+06
1375,-59.501,-11.5,-71.175,8.78E+05
1376,-78.818,-11.5,-55.997,1.18E+06
1377,-79.593,-11.061,-55.274,5.41E+05
1378,-82.374,-10,-58.69,7.17E+05
1379,-83.49,-10,-63.004,7.33E+05
1380,-83.14,-10,-67.447,3.78E+05
1381,-81.363,-10,-71.534,2.79E+05
1382,-78.353,-10,-74.819,8.29E+05
1383,-74.437,-10,-76.946,1.19E+06
1384,-70.041,-10,-77.681,1.22E+06
1385,-65.646,-10,-76.946,8.59E+05
1386,-66.608,-11.5,-75.679,7.32E+05
1387,-71.035,-11.5,-76.14,1.06E+06
1388,-75.325,-11.5,-74.955,1.21E+06
1389,-78.216,-11.5,-72.966,8.86E+05
1390,-81.235,-11.5,-68.506,4.47E+05
1391,-82.041,-11.5,-64.129,2.29E+05
1392,-81.197,-11.5,-59.759,5.61E+05
1393,-76.09,-11.5,-53.072,1.64E+06
1394,-73.362,-11.5,-50.146,1.87E+06
1395,-70.634,-11.5,-47.221,2.79E+06
1396,-69.497,-11.5,-70.407,8.11E+05
1397,-65.254,-11.5,-68.198,8.19E+05
1398,-63.815,-11.5,-63.636,2.60E+06
1399,-66.024,-11.5,-59.393,2.85E+06
1400,-70.586,-11.5,-57.955,2.52E+06
1401,-74.829,-11.5,-60.164,2.40E+06
1402,-76.268,-11.5,-64.726,2.46E+06
1403,-74.059,-11.5,-68.969,7.67E+05
1404,-67.896,-11.5,68.833,2.27E+07
1405,-68.786,-11.061,68.255,2.10E+07
1406,-59.182,-11.5,55.414,1.47E+08
1407,-60.457,-11.118,55.542,1.48E+08
1408,-61.361,-11.5,58.769,1.33E+08
1409,-63.325,-11.5,61.793,9.70E+07
1410,-65.718,-11.5,65.478,6.19E+07
1411,-48.915,-11.5,83.398,2.49E+07
1412,-47.8,-10,84.402,2.25E+07
1413,-48.126,-11.061,84.108,2.25E+07
1414,-51.287,-10,87.176,1.88E+07
1415,-55.488,-10,88.663,2.18E+07
1416,-59.944,-10,88.702,1.99E+07
1417,-64.17,-10,87.288,1.88E+07
1418,-67.706,-10,84.576,1.81E+07
1419,-70.165,-10,80.86,1.96E+07
1420,-71.281,-10,76.545,2.24E+07
1421,-70.931,-10,72.103,1.90E+07
1422,-69.586,-11.5,72.951,1.54E+07
1423,-69.659,-11.5,77.401,2.84E+07
1424,-68.445,-11.5,80.97,3.47E+07
1425,-65.137,-11.5,84.889,3.75E+07
1426,-61.165,-11.5,86.896,3.44E+07
1427,-56.734,-11.5,87.318,2.75E+07
1428,-52.455,-11.5,86.096,1.50E+07
1429,-38.209,-11.5,71.508,1.51E+08
1430,-37.926,-10,73.436,1.08E+08
1431,-41.217,-10,77.091,8.85E+07
1432,-44.509,-10,80.746,5.47E+07
1433,-46.238,-11.5,80.426,6.25E+07
1434,-43.562,-11.5,77.453,1.01E+08
1435,-40.885,-11.5,74.48,1.35E+08
1436,-39.694,-11.5,66.941,1.38E+08
1437,-42.226,-11.5,62.861,1.27E+08
1438,-45.657,-11.5,59.501,1.35E+08
1439,-49.79,-11.5,57.057,1.34E+08
1440,-54.387,-11.5,55.668,1.29E+08
1441,-64.082,-11.5,75.369,3.57E+07
1442,-62.252,-11.5,70.949,5.81E+07
1443,-57.832,-11.5,69.119,6.33E+07
1444,-53.413,-11.5,70.949,3.64E+07
1445,-51.582,-11.5,75.369,6.88E+07
1446,-53.413,-11.5,79.788,4.11E+07
1447,-57.832,-11.5,81.619,5.11E+07
1448,-62.252,-11.5,79.788,7.65E+07
1449,-78.818,-1,-55.997,8.19E+05
1450,-79.593,-1.4393,-55.274,3.91E+05
1451,-70.634,-1,-47.221,3.21E+06
1452,-73.362,-1,-50.146,2.31E+06
1453,-76.09,-1,-53.072,1.72E+06
1454,-62.653,-1,-73.637,9.72E+05
1455,-62,-1.4393,-74.473,4.65E+05
1456,-65.646,-2.5,-76.946,8.85E+05
1457,-70.041,-2.5,-77.681,1.12E+06
1458,-74.437,-2.5,-76.946,1.01E+06
1459,-78.353,-2.5,-74.819,5.80E+05
1460,-81.363,-2.5,-71.534,1.52E+05
1461,-83.14,-2.5,-67.447,6.41E+05
1462,-83.49,-2.5,-63.004,9.11E+05
1463,-82.374,-2.5,-58.69,7.80E+05
1464,-81.197,-1,-59.759,5.46E+05
1465,-82.041,-1,-64.129,7.81E+05
1466,-81.235,-1,-68.506,6.99E+05
1467,-78.889,-1,-72.288,4.71E+05
1468,-75.325,-1,-74.955,7.74E+05
1469,-71.035,-1,-76.14,8.37E+05
1470,-66.608,-1,-75.679,8.79E+05
1471,-59.501,-1,-71.175,5.59E+05
1472,-56.349,-1,-68.712,1.09E+05
1473,-53.197,-1,-66.249,6.73E+05
1474,-69.497,-1,-70.407,1.25E+06
1475,-74.059,-1,-68.969,7.98E+05
1476,-76.268,-1,-64.726,1.45E+06
1477,-74.829,-1,-60.164,2.17E+06
1478,-70.586,-1,-57.955,2.06E+06
1479,-66.024,-1,-59.393,1.77E+06
1480,-63.815,-1,-63.636,2.47E+06
1481,-65.254,-1,-68.198,1.57E+06
1482,-48.915,-1,83.398,2.41E+07
1483,-47.8,-2.5,84.402,2.11E+07
1484,-48.126,-1.4393,84.108,2.21E+07
1485,-37.926,-2.5,73.436,1.04E+08
1486,-44.509,-2.5,80.746,5.51E+07
1487,-41.217,-2.5,77.091,8.55E+07
1488,-38.209,-1,71.508,1.42E+08
1489,-38.002,-1.3816,72.772,1.41E+08
1490,-40.885,-1,74.48,1.28E+08
1491,-43.562,-1,77.453,9.82E+07
1492,-46.238,-1,80.426,6.06E+07
1493,-67.896,-1,68.833,2.11E+07
1494,-68.786,-1.4393,68.255,1.99E+07
1495,-70.931,-2.5,72.103,1.94E+07
1496,-71.281,-2.5,76.545,2.05E+07
1497,-70.165,-2.5,80.86,2.03E+07
1498,-67.706,-2.5,84.576,1.62E+07
1499,-64.17,-2.5,87.288,1.77E+07
1500,-59.944,-2.5,88.702,2.01E+07
1501,-55.488,-2.5,88.663,2.18E+07
1502,-51.287,-2.5,87.176,1.93E+07
1503,-52.455,-1,86.096,1.74E+07
1504,-56.734,-1,87.318,2.99E+07
1505,-61.165,-1,86.896,3.33E+07
1506,-65.137,-1,84.889,3.81E+07
1507,-68.105,-1,81.571,3.56E+07
1508,-69.659,-1,77.401,2.67E+07
1509,-69.586,-1,72.951,1.67E+07
1510,-59.182,-1,55.414,1.28E+08
1511,-60.457,-1.3816,55.542,1.33E+08
1512,-65.718,-1,65.478,6.28E+07
1513,-63.539,-1,62.124,9.44E+07
1514,-61.361,-1,58.769,1.25E+08
1515,-54.387,-1,55.668,1.28E+08
1516,-49.79,-1,57.057,1.39E+08
1517,-45.657,-1,59.501,1.40E+08
1518,-42.226,-1,62.861,1.37E+08
1519,-39.694,-1,66.941,1.28E+08
1520,-64.082,-1,75.369,3.84E+07
1521,-62.252,-1,79.788,7.86E+07
1522,-57.832,-1,81.619,5.86E+07
1523,-53.413,-1,79.788,3.84E+07
1524,-51.582,-1,75.369,7.16E+07
1525,-53.413,-1,70.949,4.24E+07
1526,-57.832,-1,69.119,6.37E+07
1527,-62.252,-1,70.949,5.96E+07
1528,-20,2.0477,-40.829,4.36E+08
1529,-20.054,0.56372,-39.735,1.25E+09
1530,21.159,0.63216,-39.826,3.38E+08
1531,-15.348,-19.238,39.099,5.48E+07
1532,-11,-19.238,39.099,1.80E+08
1533,-11,-22.909,39.883,2.32E+08
1534,-11,-25,41.677,1.58E+08
1535,-7.0309,-25,42.527,2.03E+08
1536,-11,-26.694,37.784,2.59E+08
1537,-2.7575,-26.405,39.533,3.44E+08
1538,46.8,-25,4.8841,8.91E+07
1539,46.8,-25,9.0381,9.13E+07
1540,46.8,-25,13.192,1.07E+08
1541,46.8,-25,17.346,1.22E+08
1542,2.7575,-26.405,39.533,3.43E+08
1543,-12.52,-12.5,45.219,3.13E+08
1544,-11.387,-12.5,49.873,2.11E+08
1545,-19.448,-12.5,52.914,3.27E+08
1546,-13.124,-12.5,51.995,2.70E+08
1547,-16.452,-12.5,51.313,3.10E+08
1548,-37.926,-12.5,73.436,3.88E+07
1549,-22.528,-12.5,56.334,2.65E+08
1550,-25.608,-12.5,59.755,2.27E+08
1551,-28.687,-12.5,63.175,1.94E+08
1552,-31.767,-12.5,66.595,1.64E+08
1553,-34.846,-12.5,70.015,1.48E+08
1554,-38.829,-12.5,69.134,7.59E+07
1555,-40.65,-12.5,65.133,4.66E+07
1556,-43.301,-12.5,61.627,4.71E+07
1557,-46.653,-12.5,58.785,7.85E+07
1558,-50.546,-12.5,56.743,6.02E+07
1559,-54.791,-12.5,55.601,6.28E+07
1560,-15.006,-15.879,39.691,1.07E+08
1561,-20.932,-14.592,-39.152,1.61E+08
1562,-20.287,-15.831,-42.44,1.02E+08
1563,-20,-17.5,-46.577,5.54E+07
1564,-20,-17.5,-35.394,2.04E+08
1565,-25,-12.5,-35.394,2.68E+08
1566,-21.464,-13.964,-35.394,2.81E+08
1567,-22.963,-13.959,-32.51,3.60E+08
1568,5.5,-19.951,-41.634,9.76E+07
1569,5.1012,-21.689,-38.993,1.35E+08
1570,-5.5,-19.951,-41.634,1.69E+08
1571,-5.1012,-21.689,-38.993,1.79E+08
1572,-1.8336,-19.931,-41.706,6.99E+07
1573,1.8336,-19.931,-41.706,6.59E+07
1574,-7.2922,-21.427,-39.07,1.79E+08
1575,-20,-20.736,-35.367,2.58E+08
1576,-20.632,-22.635,-32.904,2.81E+08
1577,-20,-20,-35.376,2.18E+08
1578,-39.262,-12.5,-18.336,1.44E+08
1579,-37.151,-12.5,-22.305,1.51E+08
1580,-34.641,-12.5,-26.034,1.67E+08
1581,-31.757,-12.5,-29.482,1.82E+08
1582,-28.532,-12.5,-32.614,2.12E+08
1583,-20,-17.5,-38.846,1.13E+08
1584,-25,-12.5,-40.583,2.34E+08
1585,5.5,-18.657,-42.747,1.03E+08
1586,5.5,-19.478,-42.392,8.29E+07
1587,7,-18.5,-44.272,7.02E+07
1588,6.5664,-18.61,-43.199,1.37E+08
1589,7.4393,-19.561,-44.272,4.27E+07
1590,-5.5,-18.657,-42.747,1.37E+08
1591,-5.5,-19.478,-42.392,1.18E+08
1592,-1.8333,-18.657,-42.747,5.10E+07
1593,1.8333,-18.657,-42.747,4.93E+07
1594,-7,-18.5,-44.272,2.91E+08
1595,-7.4393,-19.561,-44.272,2.40E+08
1596,-6.5664,-18.61,-43.199,2.91E+08
1597,-19.447,-12.192,52.913,3.25E+08
1598,-13.124,-12.213,51.993,2.76E+08
1599,-16.452,-12.206,51.311,2.58E+08
1600,-19.133,-5.0243,52.564,1.96E+08
1601,-19.373,-8.5996,52.83,1.29E+08
1602,-11,-16.003,39.67,1.41E+08
1603,101.75,45,21.5,3.12E+07
1604,103.58,40.581,21.5,2.80E+07
1605,108,38.75,21.5,3.61E+07
1606,112.42,40.581,21.5,2.50E+07
1607,114.25,45,21.5,2.79E+07
1608,112.42,49.419,21.5,9.06E+06
1609,108,51.25,21.5,1.39E+07
1610,103.58,49.419,21.5,1.29E+07
1611,101.75,45,5.5,4.29E+07
1612,101.75,45,17.5,3.77E+07
1613,101.75,45,13.5,4.01E+07
1614,101.75,45,9.5,4.03E+07
1615,103.58,49.419,5.5,1.17E+07
1616,108,51.25,5.5,1.94E+07
1617,112.42,49.419,5.5,1.05E+07
1618,114.25,45,5.5,2.07E+07
1619,112.42,40.581,5.5,3.12E+07
1620,108,38.75,5.5,3.43E+07
1621,103.58,40.581,5.5,3.18E+07
1622,92.278,47.972,21.5,2.04E+07
1623,92.278,47.972,5.5,8.53E+06
1624,92.278,47.972,17.5,1.69E+07
1625,92.278,47.972,13.5,1.41E+07
1626,92.278,47.972,9.5,1.10E+07
1627,112.11,29.537,21.5,1.76E+07
1628,93.894,52.551,21.5,7.10E+06
1629,96.809,56.435,21.5,1.82E+06
1630,100.75,59.266,21.5,8.42E+06
1631,105.37,60.782,21.5,1.34E+07
1632,110.22,60.845,21.5,1.50E+07
1633,114.88,59.448,21.5,1.32E+07
1634,118.89,56.72,21.5,9.09E+06
1635,121.91,52.912,21.5,3.40E+06
1636,123.64,48.376,21.5,3.42E+06
1637,123.93,43.528,21.5,7.44E+06
1638,122.76,38.817,21.5,8.56E+06
1639,120.22,34.674,21.5,5.84E+06
1640,116.56,31.483,21.5,1.18E+06
1641,112.11,29.537,5.5,3.14E+07
1642,112.11,29.537,9.5,2.64E+07
1643,112.11,29.537,13.5,2.60E+07
1644,112.11,29.537,17.5,2.09E+07
1645,116.56,31.483,5.5,4.50E+06
1646,120.22,34.674,5.5,5.26E+06
1647,122.76,38.817,5.5,9.45E+06
1648,123.93,43.528,5.5,9.43E+06
1649,123.64,48.376,5.5,6.21E+06
1650,121.91,52.912,5.5,1.61E+06
1651,118.89,56.72,5.5,5.69E+06
1652,114.88,59.448,5.5,1.02E+07
1653,110.22,60.845,5.5,1.24E+07
1654,105.37,60.782,5.5,1.16E+07
1655,100.75,59.266,5.5,7.53E+06
1656,96.809,56.435,5.5,2.34E+06
1657,93.894,52.551,5.5,3.75E+06
1658,107.31,26.629,5.5,6.29E+07
1659,109.5,28.427,5.5,5.62E+07
1660,107.31,26.629,21.5,3.45E+07
1661,109.5,28.427,21.5,3.04E+07
1662,107.31,26.629,17.5,4.42E+07
1663,107.31,26.629,13.5,4.99E+07
1664,107.31,26.629,9.5,5.89E+07
1665,84.3,37.043,21.5,5.72E+07
1666,89.825,43.073,21.5,3.85E+07
1667,87.063,40.058,21.5,4.58E+07
1668,97.978,22.097,21.5,2.80E+07
1669,94.313,24.079,21.5,2.31E+07
1670,91.028,26.644,21.5,2.87E+07
1671,88.215,29.718,21.5,3.74E+07
1672,85.951,33.217,21.5,4.55E+07
1673,104.62,23.69,21.5,3.72E+07
1674,91.394,45.351,21.5,3.17E+07
1675,89.825,43.073,5.5,8.65E+06
1676,91.394,45.351,5.5,7.93E+06
1677,104.62,23.69,5.5,7.02E+07
1678,85.951,33.217,5.5,1.75E+07
1679,88.215,29.718,5.5,2.57E+07
1680,91.028,26.644,5.5,3.78E+07
1681,94.313,24.079,5.5,5.09E+07
1682,97.978,22.097,5.5,6.69E+07
1683,87.063,40.058,5.5,1.35E+07
1684,89.825,43.073,9.5,1.62E+07
1685,89.825,43.073,13.5,2.40E+07
1686,89.825,43.073,17.5,3.14E+07
1687,13,32.317,63,1.24E+09
1688,13,34.148,67.419,9.15E+08
1689,13,38.567,69.25,5.07E+08
1690,13,42.986,67.419,1.61E+08
1691,13,44.817,63,5.45E+07
1692,13,42.986,58.581,1.91E+08
1693,13,38.567,56.75,5.68E+08
1694,13,34.148,58.581,1.02E+09
1695,8.6667,32.317,63,7.21E+08
1696,4.3333,32.317,63,4.94E+08
1697,1.73E-15,32.317,63,4.01E+08
1698,-4.3333,32.317,63,4.58E+08
1699,-8.6667,32.317,63,6.82E+08
1700,13,39.75,118,1.09E+07
1701,13,41.581,122.42,1.98E+06
1702,13,46,124.25,2.90E+06
1703,13,50.419,122.42,4.31E+06
1704,13,52.25,118,9.19E+06
1705,13,50.419,113.58,3.53E+07
1706,13,46,111.75,8.37E+07
1707,13,41.581,113.58,4.74E+07
1708,8.6667,39.75,118,7.65E+06
1709,4.3333,39.75,118,5.20E+06
1710,1.73E-15,39.75,118,5.77E+06
1711,-4.3333,39.75,118,6.20E+06
1712,-8.6667,39.75,118,6.73E+06
1713,13,58.987,114.31,7.59E+06
1714,13,59.447,119.2,4.64E+06
1715,13,58.132,123.92,2.88E+06
1716,13,55.217,127.86,1.70E+06
1717,13,51.086,130.51,1.09E+06
1718,13,46.284,131.5,5.51E+05
1719,13,41.445,130.71,1.40E+05
1720,13,37.206,128.24,6.08E+05
1721,13,34.128,124.43,1.69E+06
1722,4,11.006,73.241,2.24E+08
1723,2.5,20.938,81.151,1.12E+08
1724,3.9021,14.726,75.476,2.16E+08
1725,3.5805,18.103,78.186,1.79E+08
1726,2.5,-1.3883,66.617,3.74E+08
1727,2.5,18.149,77.545,2.25E+08
1728,2.5,14.903,74.344,3.43E+08
1729,2.5,11.258,71.606,4.71E+08
1730,2.5,7.2788,69.381,4.73E+08
1731,2.5,3.0381,67.708,4.71E+08
1732,4,-1.6487,68.094,2.50E+08
1733,3.5607,-1.4646,67.049,3.61E+08
1734,4,2.7984,69.206,2.72E+08
1735,4,6.9114,70.868,2.73E+08
1736,-2.5,20.938,81.151,7.42E+07
1737,-2.5,-1.3883,66.617,3.54E+08
1738,-2.5,3.0381,67.708,4.47E+08
1739,-2.5,7.2788,69.381,4.79E+08
1740,-2.5,11.258,71.606,4.35E+08
1741,-2.5,14.903,74.344,3.37E+08
1742,-2.5,18.149,77.545,2.16E+08
1743,-4,-1.6487,68.094,1.91E+08
1744,-3.5607,-1.4646,67.049,3.16E+08
1745,-4,11.006,73.241,2.27E+08
1746,-3.5768,18.103,78.186,1.72E+08
1747,-3.9023,14.727,75.476,2.30E+08
1748,-4,7.1116,70.966,2.23E+08
1749,-4,2.7984,69.206,2.10E+08
1750,2.5,-15.983,64.043,3.63E+07
1751,2.5,-6.2531,65.759,2.80E+08
1752,2.5,-11.118,64.901,1.35E+08
1753,-2.5,-15.983,64.043,4.34E+07
1754,-2.5,-11.118,64.901,1.54E+08
1755,-2.5,-6.2531,65.759,2.54E+08
1756,4,-11.274,66.397,1.25E+08
1757,3.0973,-15.67,64.225,5.43E+07
1758,3.4424,-15.119,64.534,6.88E+07
1759,3.8053,-13.885,65.186,9.63E+07
1760,4,-6.4613,67.245,1.73E+08
1761,4,2.6838,71.406,1.24E+08
1762,4,-1.0235,70.856,1.07E+08
1763,4,-4.6265,69.825,1.16E+08
1764,4,-8.0631,68.33,1.17E+08
1765,4,6.9073,72.041,1.64E+08
1766,-4,-11.274,66.397,1.34E+08
1767,-4,2.6838,71.406,6.06E+07
1768,-4,-8.0631,68.33,1.14E+08
1769,-4,-4.6265,69.825,9.80E+07
1770,-4,-1.0235,70.856,7.10E+07
1771,-4,-6.4613,67.245,1.61E+08
1772,-4,6.9073,72.041,1.24E+08
1773,-3.8054,-13.885,65.186,1.17E+08
1774,-3.4432,-15.119,64.534,8.63E+07
1775,-3.0971,-15.669,64.226,6.95E+07
1776,68.918,-15.268,9.5,1.19E+08
1777,68.918,-15.268,13.5,1.05E+08
1778,68.918,-15.268,17.5,9.02E+07
1779,38.321,-13.133,0,1.31E+08
1780,57.788,8.1102,8.8953,9.75E+07
1781,57.788,8.1102,14,1.25E+08
1782,57.788,8.1102,18.25,1.49E+08
1783,13,45.35,51.328,1.23E+08
1784,13,48.957,54.381,8.22E+07
1785,13,51.291,58.49,5.85E+07
1786,13,52.066,63.151,4.99E+07
1787,-5.6556,50.62,72.652,6.79E+07
1788,5.20E-15,50.62,72.652,6.98E+07
1789,4.8316,50.62,72.652,7.00E+07
1790,-6.6,51.187,67.795,4.90E+07
1791,-1.7,51.187,67.795,3.48E+07
1792,3.2,51.187,67.795,4.76E+07
1793,8.1,51.187,67.795,6.69E+07
1794,4.4393,2.5976,72.463,1.04E+08
1795,4.4393,10.64,74.236,1.49E+08
1796,-4.4393,10.64,74.236,1.14E+08
1797,-4.4393,2.5976,72.463,4.60E+07
1798,18,38.665,-63.351,1.64E+06
1799,16.5,40.157,-63.508,1.36E+06
1800,17.561,39.72,-63.462,1.12E+06
1801,16.5,41.934,-46.601,8.10E+05
1802,16.5,40.601,-59.281,5.72E+06
1803,16.5,41.045,-55.055,7.62E+06
1804,16.5,41.49,-50.828,4.42E+06
1805,18,40.442,-46.445,1.05E+06
1806,17.561,41.497,-46.555,5.81E+05
1807,18,39.998,-50.671,2.38E+06
1808,18,39.554,-54.898,1.01E+07
1809,18,39.109,-59.125,2.93E+06
1810,-1.5,38.665,-63.351,1.07E+06
1811,-3,40.157,-63.508,7.86E+05
1812,-1.9393,39.72,-63.462,6.14E+05
1813,-3,41.934,-46.601,1.17E+06
1814,-3,40.601,-59.281,3.38E+06
1815,-3,41.045,-55.055,6.10E+06
1816,-3,41.49,-50.828,4.70E+06
1817,-1.5,40.442,-46.445,1.23E+06
1818,-1.9393,41.497,-46.555,9.41E+05
1819,-1.5,39.998,-50.671,2.28E+06
1820,-1.5,39.554,-54.898,7.74E+06
1821,-1.5,39.109,-59.125,1.55E+06
1822,1.5,28.095,-54.114,3.64E+07
1823,1.5,30.095,-57.578,2.84E+07
1824,1.5,34.095,-57.578,1.98E+07
1825,1.5,36.095,-54.114,1.36E+07
1826,1.5,34.095,-50.65,2.30E+07
1827,1.5,30.095,-50.65,3.25E+07
1828,18,28.095,-54.114,2.16E+07
1829,5.625,28.095,-54.114,5.68E+07
1830,9.75,28.095,-54.114,4.57E+07
1831,13.875,28.095,-54.114,2.37E+07
1832,18,30.095,-50.65,1.58E+07
1833,18,34.095,-50.65,1.71E+07
1834,18,36.095,-54.114,1.07E+07
1835,18,34.095,-57.578,1.97E+07
1836,18,30.095,-57.578,1.56E+07
1837,1.5,40.442,-46.445,1.31E+06
1838,3,41.934,-46.601,1.57E+06
1839,1.9393,41.497,-46.555,1.17E+06
1840,3,40.157,-63.508,1.00E+06
1841,3,41.49,-50.828,6.27E+06
1842,3,41.045,-55.055,9.80E+06
1843,3,40.601,-59.281,5.07E+06
1844,1.5,38.665,-63.351,1.28E+06
1845,1.9393,39.72,-63.462,1.04E+06
1846,1.5,39.067,-59.524,3.08E+06
1847,1.5,39.554,-54.898,1.00E+07
1848,1.5,39.998,-50.671,3.27E+06
1849,30,-12.5,-53,4.29E+07
1850,30,-10,-50.5,6.59E+07
1851,30,-7.5,-53,7.38E+07
1852,30,-10,-55.5,1.61E+07
1853,30,-11.768,-51.232,5.05E+07
1854,30,-8.2322,-51.232,8.09E+07
1855,30,-8.2322,-54.768,3.46E+07
1856,30,-11.768,-54.768,2.09E+07
1857,30,-12.5,-33,1.46E+08
1858,30,-10,-30.5,1.60E+08
1859,30,-7.5,-33,1.78E+08
1860,30,-10,-35.5,7.67E+07
1861,30,-11.768,-31.232,1.37E+08
1862,30,-8.2322,-31.232,1.73E+08
1863,30,-8.2322,-34.768,1.06E+08
1864,30,-11.768,-34.768,1.12E+08
1865,4.4393,-11.879,67.268,8.83E+07
1866,-4.4393,-11.879,67.268,1.09E+08
1867,7,-17.634,-44.363,6.17E+07
1868,5.5,-17.477,-42.871,1.20E+08
1869,6.5607,-17.523,-43.308,1.10E+08
1870,5.5,-13,-47.843,2.29E+08
1871,5.5,-14.284,-44.498,1.98E+08
1872,7,-14.5,-47.843,1.07E+08
1873,6.5607,-13.439,-47.843,2.34E+08
1874,7,-15.399,-45.501,7.16E+07
1875,-5.5,-13,-47.843,2.58E+08
1876,-5.5,-17.477,-42.871,1.59E+08
1877,-5.5,-14.284,-44.498,2.27E+08
1878,-1.8333,-13,-47.843,2.19E+08
1879,1.8333,-13,-47.843,2.07E+08
1880,-1.8333,-17.477,-42.871,1.14E+08
1881,1.8333,-17.477,-42.871,1.03E+08
1882,-7,-14.5,-47.843,1.19E+08
1883,-6.5607,-13.439,-47.843,2.19E+08
1884,-7,-17.634,-44.363,2.51E+08
1885,-6.5607,-17.523,-43.308,2.64E+08
1886,-7,-15.399,-45.501,1.62E+08
1887,-3,39.609,-64.517,5.33E+05
1888,-1.9393,38.554,-64.406,1.28E+06
1889,17.561,38.554,-64.406,1.47E+06
1890,16.5,39.609,-64.517,9.28E+05
1891,3,39.609,-64.517,7.49E+05
1892,1.9393,38.554,-64.406,2.46E+06
1893,-16.5,40.157,-63.508,1.19E+06
1894,-18,38.665,-63.351,1.75E+06
1895,-17.561,39.72,-63.462,1.48E+06
1896,-16.5,39.609,-64.517,7.67E+05
1897,-17.561,38.554,-64.406,8.21E+05
1898,-1.5,27.095,-54.114,1.82E+07
1899,-1.5,28.977,-50.205,5.77E+07
1900,-1.5,33.207,-49.239,1.39E+07
1901,-1.5,36.599,-51.945,1.04E+07
1902,-1.5,36.599,-56.283,8.41E+06
1903,-1.5,33.207,-58.989,1.28E+07
1904,-1.5,28.977,-58.023,1.86E+07
1905,-18,27.095,-54.114,8.51E+06
1906,-5.625,27.095,-54.114,6.50E+07
1907,-9.75,27.095,-54.114,5.22E+07
1908,-13.875,27.095,-54.114,1.86E+07
1909,-18,28.977,-58.023,1.59E+07
1910,-18,33.207,-58.989,1.05E+07
1911,-18,36.599,-56.283,8.36E+06
1912,-18,36.599,-51.945,6.94E+06
1913,-18,33.207,-49.239,6.22E+06
1914,-18,28.977,-50.205,9.49E+06
1915,-18,40.442,-46.445,1.07E+06
1916,-16.5,41.934,-46.601,8.37E+05
1917,-17.561,41.497,-46.555,8.66E+05
1918,-16.5,41.49,-50.828,3.08E+06
1919,-16.5,41.045,-55.055,5.33E+06
1920,-16.5,40.601,-59.281,4.29E+06
1921,-18,39.109,-59.125,1.76E+06
1922,-18,39.554,-54.898,5.78E+06
1923,-18,39.998,-50.671,2.05E+06
1924,-7,-14.5,-56.135,1.14E+08
1925,-5.5,-13,-57.788,2.16E+08
1926,-6.6978,-13.598,-57.281,2.01E+08
1927,-5.5,-13,-52.816,2.30E+08
1928,-7,-14.5,-51.989,1.09E+08
1929,5.5,-13,-57.788,3.45E+08
1930,1.8333,-13,-57.788,1.21E+08
1931,-1.8333,-13,-57.788,9.07E+07
1932,5.5,-13,-52.816,2.54E+08
1933,7,-14.5,-56.135,1.95E+08
1934,6.6978,-13.598,-57.281,2.91E+08
1935,7,-14.5,-51.989,1.55E+08
1936,-64.082,-8,75.369,2.62E+07
1937,-64.082,-4.5,75.369,2.76E+07
1938,7.5,40.157,-63.508,2.55E+06
1939,12,40.157,-63.508,2.57E+06
1940,12,41.934,-46.601,3.24E+06
1941,7.5,41.934,-46.601,3.53E+06
1942,17.561,40.553,-45.39,1.55E+06
1943,16.5,41.608,-45.501,5.88E+05
1944,18,12.31,-60.581,1.01E+08
1945,18,34.273,-62.89,5.30E+06
1946,18,29.88,-62.428,1.78E+07
1947,18,25.488,-61.966,1.64E+07
1948,18,21.095,-61.505,9.65E+06
1949,18,16.703,-61.043,6.23E+07
1950,18,14.087,-43.675,3.03E+08
1951,18,18.48,-44.136,1.96E+08
1952,18,22.872,-44.598,9.06E+07
1953,18,27.265,-45.06,3.66E+07
1954,18,31.657,-45.521,1.66E+07
1955,18,36.05,-45.983,5.57E+06
1956,18,12.754,-56.355,2.15E+08
1957,18,13.199,-52.128,2.90E+08
1958,18,13.643,-47.901,2.50E+08
1959,-17.561,40.553,-45.39,1.09E+06
1960,-16.5,41.608,-45.501,5.87E+05
1961,-7.5,41.934,-46.601,2.97E+06
1962,-12,41.934,-46.601,2.48E+06
1963,-12,40.157,-63.508,1.95E+06
1964,-7.5,40.157,-63.508,1.98E+06
1965,-3,41.608,-45.501,8.60E+05
1966,-1.9393,40.553,-45.39,9.46E+05
1967,-1.5,24.119,-61.823,1.10E+08
1968,-1.5,33.816,-62.842,5.72E+06
1969,-1.5,28.968,-62.332,2.14E+07
1970,-1.5,25.896,-44.916,1.35E+08
1971,-1.5,30.745,-45.425,1.50E+07
1972,-1.5,35.593,-45.935,7.35E+06
1973,-1.5,24.563,-57.596,9.14E+07
1974,-1.5,25.008,-53.369,9.22E+07
1975,-1.5,25.452,-49.142,1.21E+08
1976,1.5,24.119,-61.823,1.16E+08
1977,1.5,28.968,-62.332,3.39E+07
1978,1.5,34.317,-62.894,8.45E+06
1979,1.5,25.896,-44.916,1.43E+08
1980,1.5,24.563,-57.596,8.97E+07
1981,1.5,25.008,-53.369,1.12E+08
1982,1.5,25.452,-49.142,1.23E+08
1983,1.5,35.593,-45.935,9.92E+06
1984,1.5,30.745,-45.425,2.78E+07
1985,1.9393,40.553,-45.39,1.11E+06
1986,3,41.608,-45.501,9.22E+05
1987,35,-12.5,-53,2.87E+07
1988,35,-12.5,-33,1.72E+08
1989,7,-18.5,-47.889,1.67E+07
1990,7,-17.447,-52.471,1.99E+07
1991,-7,-18.5,-47.889,1.17E+08
1992,-7,-17.447,-52.471,5.57E+07
1993,-1.952,23.919,-62.881,1.16E+08
1994,17.813,12.234,-61.303,9.75E+07
1995,1.952,23.919,-62.881,1.11E+08
1996,-18,16.703,-61.043,1.13E+08
1997,-18,21.095,-61.505,3.38E+07
1998,-18,25.488,-61.966,4.75E+06
1999,-18,29.88,-62.428,8.61E+06
2000,-18,34.273,-62.89,3.02E+06
2001,-18,36.05,-45.983,3.64E+06
2002,-18,31.657,-45.521,8.19E+06
2003,-18,27.265,-45.06,2.26E+07
2004,-18,22.872,-44.598,6.17E+07
2005,-18,18.48,-44.136,1.43E+08
2006,-7.4393,-19.561,-47.889,1.10E+08
2007,-7.4393,-15.157,-56.968,5.66E+07
2008,-5.5,-12.725,-58.654,1.44E+08
2009,5.5,-12.725,-58.654,2.46E+08
2010,7.4393,-15.157,-56.968,8.31E+07
2011,7.4393,-19.561,-47.889,5.11E+06
2012,-69.497,-8,-70.407,1.31E+06
2013,-69.497,-4.5,-70.407,1.24E+06
2014,-47.8,-6.25,84.402,3.98E+07
2015,17.561,14.198,-42.62,3.16E+08
2016,20,3,-55.329,3.97E+08
2017,20,3,-50.553,4.41E+08
2018,20,3,-45.777,4.37E+08
2019,-1.952,25.921,-43.839,1.37E+08
2020,1.952,25.921,-43.839,1.52E+08
2021,38.155,-4.3766,0,1.54E+08
2022,38.262,-8.7546,0,1.42E+08
2023,4.35E-15,-49,35.5,1.25E+08
2024,4.9406,-49,35.155,1.02E+08
2025,9.7851,-49,34.125,6.90E+07
2026,14.439,-49,32.431,4.07E+07
2027,18.812,-49,30.106,5.55E+07
2028,22.819,-49,27.195,9.21E+07
2029,26.382,-49,23.754,1.14E+08
2030,29.431,-49,19.851,1.31E+08
2031,31.907,-49,15.562,1.34E+08
2032,33.763,-49,10.97,1.25E+08
2033,34.961,-49,6.1645,1.03E+08
2034,35.478,-49,1.2389,7.77E+07
2035,35.306,-49,-3.7108,5.61E+07
2036,34.445,-49,-8.5882,4.04E+07
2037,32.915,-49,-13.299,3.05E+07
2038,30.744,-49,-17.75,2.94E+07
2039,27.974,-49,-21.856,3.49E+07
2040,24.66,-49,-25.537,4.07E+07
2041,20.866,-49,-28.72,4.00E+07
2042,16.666,-49,-31.345,4.37E+07
2043,12.142,-49,-33.359,4.69E+07
2044,7.3809,-49,-34.724,5.37E+07
2045,2.4764,-49,-35.414,4.59E+07
2046,-2.4764,-49,-35.414,4.43E+07
2047,-7.3809,-49,-34.724,3.81E+07
2048,-12.142,-49,-33.359,3.03E+07
2049,-16.666,-49,-31.345,2.33E+07
2050,-20.866,-49,-28.72,2.38E+07
2051,-24.66,-49,-25.537,2.95E+07
2052,-27.974,-49,-21.856,4.70E+07
2053,-30.744,-49,-17.75,6.49E+07
2054,-32.915,-49,-13.299,8.05E+07
2055,-34.445,-49,-8.5882,9.65E+07
2056,-35.306,-49,-3.7108,1.01E+08
2057,-35.478,-49,1.2389,9.91E+07
2058,-34.961,-49,6.1645,9.35E+07
2059,-33.763,-49,10.97,8.02E+07
2060,-31.907,-49,15.562,6.39E+07
2061,-29.431,-49,19.851,4.02E+07
2062,-26.382,-49,23.754,2.63E+07
2063,-22.819,-49,27.195,4.17E+07
2064,-18.812,-49,30.106,6.94E+07
2065,-14.439,-49,32.431,1.11E+08
2066,-9.7851,-49,34.125,1.21E+08
2067,-4.9406,-49,35.155,1.30E+08
2068,-4.04E-15,-49,33,1.32E+08
2069,-4.9184,-49,32.631,1.07E+08
2070,-9.7269,-49,31.534,1.41E+08
2071,-14.318,-49,29.732,1.77E+08
2072,-18.59,-49,27.266,1.90E+08
2073,-22.446,-49,24.191,1.94E+08
2074,-25.8,-49,20.575,1.81E+08
2075,-28.579,-49,16.5,1.63E+08
2076,-30.719,-49,12.056,1.44E+08
2077,-32.173,-49,7.3432,1.24E+08
2078,-32.908,-49,2.4661,1.06E+08
2079,-32.908,-49,-2.4661,9.89E+07
2080,-32.173,-49,-7.3432,1.03E+08
2081,-30.719,-49,-12.056,1.17E+08
2082,-28.579,-49,-16.5,1.30E+08
2083,-25.8,-49,-20.575,1.36E+08
2084,-22.446,-49,-24.191,1.34E+08
2085,-18.59,-49,-27.266,1.21E+08
2086,-14.318,-49,-29.732,1.07E+08
2087,-9.7269,-49,-31.534,8.33E+07
2088,-4.9184,-49,-32.631,6.13E+07
2089,3.07E-14,-49,-33,4.76E+07
2090,4.9184,-49,-32.631,3.80E+07
2091,9.7269,-49,-31.534,3.26E+07
2092,14.318,-49,-29.732,3.83E+07
2093,18.59,-49,-27.266,4.39E+07
2094,22.446,-49,-24.191,5.56E+07
2095,25.8,-49,-20.575,7.42E+07
2096,28.579,-49,-16.5,9.40E+07
2097,30.719,-49,-12.056,1.15E+08
2098,32.173,-49,-7.3432,1.35E+08
2099,32.908,-49,-2.4661,1.52E+08
2100,32.908,-49,2.4661,1.63E+08
2101,32.173,-49,7.3432,1.61E+08
2102,30.719,-49,12.056,1.42E+08
2103,28.579,-49,16.5,1.27E+08
2104,25.8,-49,20.575,1.46E+08
2105,22.446,-49,24.191,2.25E+08
2106,18.59,-49,27.266,2.94E+08
2107,14.318,-49,29.732,3.18E+08
2108,9.7269,-49,31.534,2.84E+08
2109,4.9184,-49,32.631,2.07E+08
2110,3.92E-15,-48,32,1.47E+08
2111,-3.92E-15,-48,-32,6.80E+07
2112,4.7694,-48,31.643,3.06E+08
2113,9.4322,-48,30.578,4.37E+08
2114,13.884,-48,28.831,4.91E+08
2115,18.026,-48,26.44,4.49E+08
2116,21.766,-48,23.458,3.28E+08
2117,25.019,-48,19.952,1.87E+08
2118,27.713,-48,16,1.32E+08
2119,29.788,-48,11.691,1.76E+08
2120,31.198,-48,7.1207,2.21E+08
2121,31.911,-48,2.3914,2.44E+08
2122,31.911,-48,-2.3914,2.39E+08
2123,31.198,-48,-7.1207,2.18E+08
2124,29.788,-48,-11.691,1.89E+08
2125,27.713,-48,-16,1.55E+08
2126,25.019,-48,-19.952,1.21E+08
2127,21.766,-48,-23.458,8.76E+07
2128,18.026,-48,-26.44,6.11E+07
2129,13.884,-48,-28.831,4.12E+07
2130,9.4322,-48,-30.578,3.21E+07
2131,4.7694,-48,-31.643,4.39E+07
2132,-4.7694,-48,-31.643,1.02E+08
2133,-9.4322,-48,-30.578,1.40E+08
2134,-13.884,-48,-28.831,1.74E+08
2135,-18.026,-48,-26.44,1.99E+08
2136,-21.766,-48,-23.458,2.10E+08
2137,-25.019,-48,-19.952,2.05E+08
2138,-27.713,-48,-16,1.88E+08
2139,-29.788,-48,-11.691,1.60E+08
2140,-31.198,-48,-7.1207,1.30E+08
2141,-31.911,-48,-2.3914,1.14E+08
2142,-31.911,-48,2.3914,1.31E+08
2143,-31.198,-48,7.1207,1.68E+08
2144,-29.788,-48,11.691,2.16E+08
2145,-27.713,-48,16,2.49E+08
2146,-25.019,-48,19.952,2.74E+08
2147,-21.766,-48,23.458,2.86E+08
2148,-18.026,-48,26.44,2.82E+08
2149,-13.884,-48,28.831,2.45E+08
2150,-9.4322,-48,30.578,1.72E+08
2151,-4.7694,-48,31.643,7.78E+07
2152,-3.92E-15,-45.5,-32,1.04E+08
2153,-4.8848,-45.5,-31.625,1.31E+08
2154,-9.6551,-45.5,-30.509,1.63E+08
2155,-14.199,-45.5,-28.677,1.91E+08
2156,-18.41,-45.5,-26.174,2.12E+08
2157,-22.19,-45.5,-23.057,2.14E+08
2158,-25.449,-45.5,-19.399,2.00E+08
2159,-28.112,-45.5,-15.287,1.67E+08
2160,-30.116,-45.5,-10.817,1.22E+08
2161,-31.415,-45.5,-6.0925,6.94E+07
2162,-31.977,-45.5,-1.2257,5.46E+07
2163,-31.789,-45.5,3.6699,1.17E+08
2164,-30.856,-45.5,8.4794,1.81E+08
2165,-29.2,-45.5,13.09,2.37E+08
2166,-26.86,-45.5,17.394,2.76E+08
2167,-23.89,-45.5,21.29,3.08E+08
2168,-20.36,-45.5,24.688,3.15E+08
2169,-16.353,-45.5,27.506,2.97E+08
2170,-11.962,-45.5,29.68,2.39E+08
2171,-7.2913,-45.5,31.158,1.57E+08
2172,-2.4496,-45.5,31.906,1.25E+08
2173,2.4496,-45.5,31.906,2.57E+08
2174,7.2913,-45.5,31.158,4.06E+08
2175,11.962,-45.5,29.68,5.00E+08
2176,16.353,-45.5,27.506,5.00E+08
2177,20.36,-45.5,24.688,4.03E+08
2178,23.89,-45.5,21.29,2.46E+08
2179,26.86,-45.5,17.394,8.39E+07
2180,29.2,-45.5,13.09,8.85E+07
2181,30.856,-45.5,8.4794,1.74E+08
2182,31.789,-45.5,3.6699,2.24E+08
2183,31.977,-45.5,-1.2257,2.41E+08
2184,31.415,-45.5,-6.0925,2.30E+08
2185,30.116,-45.5,-10.817,2.08E+08
2186,28.112,-45.5,-15.287,1.79E+08
2187,25.449,-45.5,-19.399,1.48E+08
2188,22.19,-45.5,-23.057,1.20E+08
2189,18.41,-45.5,-26.174,9.92E+07
2190,14.199,-45.5,-28.677,8.67E+07
2191,9.6551,-45.5,-30.509,8.24E+07
2192,4.8848,-45.5,-31.625,8.75E+07
2193,-4.10E-15,-45.5,33.5,9.65E+07
2194,-4.8776,-45.5,33.143,8.76E+07
2195,-9.6513,-45.5,32.08,1.39E+08
2196,-14.219,-45.5,30.333,1.86E+08
2197,-18.484,-45.5,27.939,1.94E+08
2198,-22.355,-45.5,24.95,1.86E+08
2199,-25.75,-45.5,21.429,1.68E+08
2200,-28.595,-45.5,17.452,1.46E+08
2201,-30.832,-45.5,13.102,1.21E+08
2202,-32.411,-45.5,8.4733,8.97E+07
2203,-33.299,-45.5,3.6639,5.76E+07
2204,-33.478,-45.5,-1.2235,3.31E+07
2205,-32.943,-45.5,-6.0848,3.31E+07
2206,-31.706,-45.5,-10.816,6.05E+07
2207,-29.793,-45.5,-15.318,8.23E+07
2208,-27.245,-45.5,-19.492,1.01E+08
2209,-24.117,-45.5,-23.251,1.10E+08
2210,-20.474,-45.5,-26.515,1.13E+08
2211,-16.395,-45.5,-29.214,1.06E+08
2212,-11.967,-45.5,-31.29,9.89E+07
2213,-7.2839,-45.5,-32.699,9.22E+07
2214,-2.4453,-45.5,-33.411,9.51E+07
2215,2.4453,-45.5,-33.411,9.00E+07
2216,7.2839,-45.5,-32.699,9.65E+07
2217,11.967,-45.5,-31.29,9.84E+07
2218,16.395,-45.5,-29.214,9.81E+07
2219,20.474,-45.5,-26.515,9.24E+07
2220,24.117,-45.5,-23.251,9.06E+07
2221,27.245,-45.5,-19.492,9.23E+07
2222,29.793,-45.5,-15.318,9.67E+07
2223,31.706,-45.5,-10.816,1.05E+08
2224,32.943,-45.5,-6.0848,1.12E+08
2225,33.478,-45.5,-1.2235,1.12E+08
2226,33.299,-45.5,3.6639,1.05E+08
2227,32.411,-45.5,8.4733,8.42E+07
2228,30.832,-45.5,13.102,4.96E+07
2229,28.595,-45.5,17.452,5.45E+07
2230,25.75,-45.5,21.429,1.26E+08
2231,22.355,-45.5,24.95,2.04E+08
2232,18.484,-45.5,27.939,2.61E+08
2233,14.219,-45.5,30.333,2.70E+08
2234,9.6513,-45.5,32.08,2.35E+08
2235,4.8776,-45.5,33.143,1.64E+08
2236,4.16E-15,-45,34,8.30E+07
2237,-4.16E-15,-45,-34,9.75E+07
2238,4.8387,-45,33.654,1.27E+08
2239,9.5789,-45,32.623,1.68E+08
2240,14.124,-45,30.927,1.97E+08
2241,18.382,-45,28.603,1.90E+08
2242,22.265,-45,25.695,1.57E+08
2243,25.695,-45,22.265,1.03E+08
2244,28.603,-45,18.382,5.48E+07
2245,30.927,-45,14.124,4.11E+07
2246,32.623,-45,9.5789,5.83E+07
2247,33.654,-45,4.8387,7.23E+07
2248,34,-45,6.25E-15,7.39E+07
2249,33.654,-45,-4.8387,7.59E+07
2250,32.623,-45,-9.5789,7.12E+07
2251,30.927,-45,-14.124,7.07E+07
2252,28.603,-45,-18.382,7.60E+07
2253,25.695,-45,-22.265,7.90E+07
2254,22.265,-45,-25.695,8.67E+07
2255,18.382,-45,-28.603,9.37E+07
2256,14.124,-45,-30.927,9.91E+07
2257,9.5789,-45,-32.623,9.97E+07
2258,4.8387,-45,-33.654,9.23E+07
2259,-4.8387,-45,-33.654,8.54E+07
2260,-9.5789,-45,-32.623,8.59E+07
2261,-14.124,-45,-30.927,7.47E+07
2262,-18.382,-45,-28.603,7.37E+07
2263,-22.265,-45,-25.695,7.66E+07
2264,-25.695,-45,-22.265,7.03E+07
2265,-28.603,-45,-18.382,6.11E+07
2266,-30.927,-45,-14.124,5.17E+07
2267,-32.623,-45,-9.5789,3.72E+07
2268,-33.654,-45,-4.8387,2.55E+07
2269,-34,-45,-2.08E-15,3.00E+07
2270,-33.654,-45,4.8387,4.93E+07
2271,-32.623,-45,9.5789,7.04E+07
2272,-30.927,-45,14.124,9.04E+07
2273,-28.603,-45,18.382,1.11E+08
2274,-25.695,-45,22.265,1.27E+08
2275,-22.265,-45,25.695,1.48E+08
2276,-18.382,-45,28.603,1.61E+08
2277,-14.124,-45,30.927,1.50E+08
2278,-9.5789,-45,32.623,1.33E+08
2279,-4.8387,-45,33.654,9.73E+07
2280,-4.16E-15,-43.25,34,1.24E+08
2281,-4.16E-15,-43.25,-34,8.82E+07
2282,-4.8387,-43.25,33.654,1.42E+08
2283,-9.5789,-43.25,32.623,1.54E+08
2284,-14.124,-43.25,30.927,1.89E+08
2285,-18.382,-43.25,28.603,1.64E+08
2286,-22.265,-43.25,25.695,1.45E+08
2287,-25.695,-43.25,22.265,1.14E+08
2288,-28.603,-43.25,18.382,9.41E+07
2289,-30.927,-43.25,14.124,8.51E+07
2290,-32.623,-43.25,9.5789,7.97E+07
2291,-33.654,-43.25,4.8387,7.71E+07
2292,-34,-43.25,6.25E-15,6.46E+07
2293,-33.654,-43.25,-4.8387,6.40E+07
2294,-32.623,-43.25,-9.5789,7.11E+07
2295,-30.927,-43.25,-14.124,7.32E+07
2296,-28.603,-43.25,-18.382,6.98E+07
2297,-25.695,-43.25,-22.265,6.73E+07
2298,-22.265,-43.25,-25.695,6.45E+07
2299,-18.382,-43.25,-28.603,6.34E+07
2300,-14.124,-43.25,-30.927,6.59E+07
2301,-9.5789,-43.25,-32.623,8.06E+07
2302,-4.8387,-43.25,-33.654,8.10E+07
2303,4.8387,-43.25,-33.654,9.92E+07
2304,9.5789,-43.25,-32.623,1.06E+08
2305,14.124,-43.25,-30.927,1.03E+08
2306,18.382,-43.25,-28.603,9.71E+07
2307,22.265,-43.25,-25.695,9.65E+07
2308,25.695,-43.25,-22.265,6.68E+07
2309,28.603,-43.25,-18.382,6.29E+07
2310,30.927,-43.25,-14.124,6.33E+07
2311,32.623,-43.25,-9.5789,6.25E+07
2312,33.654,-43.25,-4.8387,7.20E+07
2313,34,-43.25,-2.08E-15,8.36E+07
2314,33.654,-43.25,4.8387,1.02E+08
2315,32.623,-43.25,9.5789,1.06E+08
2316,30.927,-43.25,14.124,8.96E+07
2317,28.603,-43.25,18.382,7.95E+07
2318,25.695,-43.25,22.265,1.01E+08
2319,22.265,-43.25,25.695,1.43E+08
2320,18.382,-43.25,28.603,1.85E+08
2321,14.124,-43.25,30.927,1.95E+08
2322,9.5789,-43.25,32.623,1.67E+08
2323,4.8387,-43.25,33.654,1.36E+08
2324,4.10E-15,-42.75,33.5,1.21E+08
2325,4.8776,-42.75,33.143,1.84E+08
2326,9.6513,-42.75,32.08,2.37E+08
2327,14.219,-42.75,30.333,2.66E+08
2328,18.484,-42.75,27.939,2.51E+08
2329,22.355,-42.75,24.95,1.90E+08
2330,25.75,-42.75,21.429,1.48E+08
2331,28.595,-42.75,17.452,1.45E+08
2332,30.832,-42.75,13.102,1.38E+08
2333,32.411,-42.75,8.4733,1.51E+08
2334,33.299,-42.75,3.6639,1.38E+08
2335,33.478,-42.75,-1.2235,1.13E+08
2336,32.943,-42.75,-6.0848,9.82E+07
2337,31.706,-42.75,-10.816,8.46E+07
2338,29.793,-42.75,-15.318,7.26E+07
2339,27.245,-42.75,-19.492,6.71E+07
2340,24.117,-42.75,-23.251,5.87E+07
2341,20.474,-42.75,-26.515,6.65E+07
2342,16.395,-42.75,-29.214,8.02E+07
2343,11.967,-42.75,-31.29,9.07E+07
2344,7.2839,-42.75,-32.699,7.74E+07
2345,2.4453,-42.75,-33.411,6.83E+07
2346,-2.4453,-42.75,-33.411,7.56E+07
2347,-7.2839,-42.75,-32.699,7.21E+07
2348,-11.967,-42.75,-31.29,7.11E+07
2349,-16.395,-42.75,-29.214,8.30E+07
2350,-20.474,-42.75,-26.515,9.09E+07
2351,-24.117,-42.75,-23.251,9.72E+07
2352,-27.245,-42.75,-19.492,1.00E+08
2353,-29.793,-42.75,-15.318,9.77E+07
2354,-31.706,-42.75,-10.816,1.13E+08
2355,-32.943,-42.75,-6.0848,1.05E+08
2356,-33.478,-42.75,-1.2235,9.78E+07
2357,-33.299,-42.75,3.6639,1.20E+08
2358,-32.411,-42.75,8.4733,1.10E+08
2359,-30.832,-42.75,13.102,1.18E+08
2360,-28.595,-42.75,17.452,1.21E+08
2361,-25.75,-42.75,21.429,1.30E+08
2362,-22.355,-42.75,24.95,1.43E+08
2363,-18.484,-42.75,27.939,1.57E+08
2364,-14.219,-42.75,30.333,1.63E+08
2365,-9.6513,-42.75,32.08,1.97E+08
2366,-4.8776,-42.75,33.143,1.24E+08
2367,-3.98E-15,-42.75,32.5,1.03E+08
2368,-4.9611,-42.75,32.119,7.83E+07
2369,-9.8059,-42.75,30.985,1.51E+08
2370,-14.421,-42.75,29.125,1.97E+08
2371,-18.698,-42.75,26.583,2.06E+08
2372,-22.537,-42.75,23.417,2.01E+08
2373,-25.847,-42.75,19.702,1.90E+08
2374,-28.552,-42.75,15.526,1.77E+08
2375,-30.587,-42.75,10.986,1.55E+08
2376,-31.906,-42.75,6.1877,1.26E+08
2377,-32.476,-42.75,1.2448,9.91E+07
2378,-32.286,-42.75,-3.7272,8.48E+07
2379,-31.338,-42.75,-8.6119,9.16E+07
2380,-29.656,-42.75,-13.295,1.17E+08
2381,-27.279,-42.75,-17.666,1.36E+08
2382,-24.263,-42.75,-21.623,1.46E+08
2383,-20.678,-42.75,-25.073,1.50E+08
2384,-16.608,-42.75,-27.936,1.40E+08
2385,-12.149,-42.75,-30.144,1.16E+08
2386,-7.4052,-42.75,-31.645,8.75E+07
2387,-2.4879,-42.75,-32.405,5.93E+07
2388,2.4879,-42.75,-32.405,3.87E+07
2389,7.4052,-42.75,-31.645,3.00E+07
2390,12.149,-42.75,-30.144,3.64E+07
2391,16.608,-42.75,-27.936,4.05E+07
2392,20.678,-42.75,-25.073,5.70E+07
2393,24.263,-42.75,-21.623,7.27E+07
2394,27.279,-42.75,-17.666,1.04E+08
2395,29.656,-42.75,-13.295,1.27E+08
2396,31.338,-42.75,-8.6119,1.46E+08
2397,32.286,-42.75,-3.7272,1.66E+08
2398,32.476,-42.75,1.2448,1.66E+08
2399,31.906,-42.75,6.1877,1.67E+08
2400,30.587,-42.75,10.986,1.46E+08
2401,28.552,-42.75,15.526,1.03E+08
2402,25.847,-42.75,19.702,1.17E+08
2403,22.537,-42.75,23.417,2.41E+08
2404,18.698,-42.75,26.583,3.68E+08
2405,14.421,-42.75,29.125,4.16E+08
2406,9.8059,-42.75,30.985,3.65E+08
2407,4.9611,-42.75,32.119,2.43E+08
2408,3.92E-15,-42.25,32,1.24E+08
2409,-3.92E-15,-42.25,-32,7.48E+07
2410,4.7694,-42.25,31.643,2.78E+08
2411,9.4322,-42.25,30.578,4.26E+08
2412,13.884,-42.25,28.831,4.94E+08
2413,18.026,-42.25,26.44,4.52E+08
2414,21.766,-42.25,23.458,3.04E+08
2415,25.019,-42.25,19.952,1.51E+08
2416,27.713,-42.25,16,1.03E+08
2417,29.788,-42.25,11.691,1.59E+08
2418,31.198,-42.25,7.1207,1.90E+08
2419,31.911,-42.25,2.3914,2.02E+08
2420,31.911,-42.25,-2.3914,2.01E+08
2421,31.198,-42.25,-7.1207,1.85E+08
2422,29.788,-42.25,-11.691,1.66E+08
2423,27.713,-42.25,-16,1.37E+08
2424,25.019,-42.25,-19.952,1.08E+08
2425,21.766,-42.25,-23.458,8.47E+07
2426,18.026,-42.25,-26.44,6.77E+07
2427,13.884,-42.25,-28.831,6.07E+07
2428,9.4322,-42.25,-30.578,6.22E+07
2429,4.7694,-42.25,-31.643,6.15E+07
2430,-4.7694,-42.25,-31.643,1.02E+08
2431,-9.4322,-42.25,-30.578,1.26E+08
2432,-13.884,-42.25,-28.831,1.56E+08
2433,-18.026,-42.25,-26.44,1.76E+08
2434,-21.766,-42.25,-23.458,1.80E+08
2435,-25.019,-42.25,-19.952,1.71E+08
2436,-27.713,-42.25,-16,1.53E+08
2437,-29.788,-42.25,-11.691,1.28E+08
2438,-31.198,-42.25,-7.1207,1.03E+08
2439,-31.911,-42.25,-2.3914,9.69E+07
2440,-31.911,-42.25,2.3914,1.20E+08
2441,-31.198,-42.25,7.1207,1.58E+08
2442,-29.788,-42.25,11.691,1.93E+08
2443,-27.713,-42.25,16,2.19E+08
2444,-25.019,-42.25,19.952,2.37E+08
2445,-21.766,-42.25,23.458,2.39E+08
2446,-18.026,-42.25,26.44,2.53E+08
2447,-13.884,-42.25,28.831,2.34E+08
2448,-9.4322,-42.25,30.578,1.87E+08
2449,-4.7694,-42.25,31.643,9.00E+07
2450,-3.92E-15,-4.6944,-32,4.93E+07
2451,-3.92E-15,-9.3889,-32,5.98E+07
2452,-3.92E-15,-14.083,-32,8.97E+07
2453,-3.92E-15,-18.778,-32,1.35E+08
2454,-3.92E-15,-23.472,-32,1.70E+08
2455,-3.92E-15,-28.167,-32,1.69E+08
2456,-3.92E-15,-32.861,-32,1.56E+08
2457,-3.92E-15,-37.556,-32,1.44E+08
2458,-20,1.0075,-41.694,6.63E+08
2459,3.2216,19.805,79.874,1.41E+08
2460,-3.2226,19.808,79.876,1.20E+08
2461,17.561,14.244,-42.183,2.02E+08
2462,17.561,12.153,-62.073,5.06E+07
2463,-17.561,14.244,-42.183,1.53E+08
2464,-17.63,12.153,-62.073,1.26E+08
2465,-20,-16.003,-46.579,1.31E+08
2466,-11,-24.615,41.862,1.34E+08
2467,2.5,19.955,79.763,1.55E+08
2468,-2.5,19.956,79.765,1.27E+08
2469,37.697,0,4.7931,1.10E+08
2470,-14.82,-12.5,40.72,6.38E+08
2471,39.846,-25.187,-6.7877,9.50E+07
2472,57.806,8.1296,5.226,7.40E+07
2473,53.021,2.9087,4.1092,6.16E+07
2474,-31.552,-32.509,21.192,1.71E+08
2475,-37.9,-32.509,2.8668,2.33E+08
2476,-36.18,-32.885,-11.595,2.26E+08
2477,-22.939,-31.635,30.348,7.94E+07
2478,-30.944,-28.703,-22.303,2.08E+08
2479,-16.565,-35.463,-34.064,9.63E+07
2480,29.514,-36.525,-23.657,6.28E+07
2481,-24.503,-33.088,-29.024,1.39E+08
2482,-33.441,-38.349,17.471,1.59E+08
2483,-34.843,-31.821,15.254,2.16E+08
2484,-31.477,-34.977,-21.111,1.70E+08
2485,-19.369,-36.812,32.473,1.25E+08
2486,33.351,-41.621,-17.223,9.44E+07
2487,37.154,-35.326,-7.4026,1.58E+08
2488,20.073,-41.621,31.717,2.18E+08
2489,37.401,-42.508,2.4102,1.78E+08
2490,35.738,-35.73,12.513,2.86E+08
2491,5.0062,-35.757,-37.531,1.81E+07
2492,31.404,-35.729,21.155,2.73E+08
2493,12.485,-41.629,35.398,2.11E+08
2494,-8.6112,-35.454,36.886,1.65E+08
2495,0.24974,-40.205,37.622,1.40E+08
2496,-10.973,-35.392,-36.257,6.37E+07
2497,-37.748,-37.797,0.93321,1.90E+08
2498,-37.451,-22.494,7.9598,2.84E+08
2499,-37.57,-21.804,-7.4296,3.10E+08
2500,-28.163,-42.511,24.728,1.26E+08
2501,-28.769,-21.842,25.278,2.25E+08
2502,28.125,-37.694,25.203,2.08E+08
2503,-37.306,-37.569,5.9103,1.91E+08
2504,-35.585,-27.523,-13.831,2.64E+08
2505,-34.031,-22.497,17.544,2.69E+08
2506,-25.09,-37.478,-28.241,1.20E+08
2507,-35.294,-42.659,-12.579,1.36E+08
2508,-38.13,-27.089,2.1433,2.68E+08
2509,-37.836,-30.006,-4.4876,2.53E+08
2510,-37.076,-40.013,-6.4573,1.71E+08
2511,24.119,-36.216,-29.158,2.99E+07
2512,-16.697,-27.115,34.346,9.09E+07
2513,-26.102,-37.072,27.337,1.05E+08
2514,13.049,-41.347,-35.213,4.57E+07
2515,31.885,-33.539,-20.608,9.11E+07
2516,-23.123,-24.329,30.476,1.17E+08
2517,34.398,-41.709,15.009,2.12E+08
2518,-11.065,-41.621,35.868,1.73E+08
2519,-8.0842,-40.848,-36.704,5.96E+07
2520,9.4448,-35.738,36.668,1.56E+08
2521,-27.816,-31.382,25.966,1.21E+08
2522,-26.92,-25.77,-27.136,1.93E+08
2523,17.842,-35.245,33.424,2.14E+08
2524,13.767,-29.696,-35.539,3.08E+07
2525,5.2959,-41.044,-37.197,4.46E+07
2526,-14.506,-36.037,34.96,1.51E+08
2527,-36.039,-37.513,11.319,1.85E+08
2528,-31.923,-40.503,-19.875,1.35E+08
2529,-36.916,-32.509,9.0441,2.27E+08
2530,-5.4315,-32.284,-37.627,4.56E+07
2531,22.324,-34.184,30.673,2.22E+08
2532,-32.721,-23.095,-19.862,2.64E+08
2533,6.3862,-41.948,36.967,1.67E+08
2534,-36.36,-27.503,11.644,2.54E+08
2535,37.068,-38.676,6.9368,2.25E+08
2536,-22.166,-42.346,-30.234,1.03E+08
2537,21.453,-41.871,-30.781,4.29E+07
2538,25.694,-29.787,-28.144,6.28E+07
2539,-0.49623,-33.7,37.955,1.48E+08
2540,34.165,-35.16,-16.388,1.11E+08
2541,36.826,-41.993,-7.1383,1.41E+08
2542,-5.3439,-40.957,37.195,1.56E+08
2543,24.942,-41.861,-28.03,4.62E+07
2544,21.927,-30.554,-31.136,4.08E+07
2545,30.281,-42.121,22.127,1.78E+08
2546,-17.555,-41.861,-33.16,9.12E+07
2547,-33.879,-31.241,-17.336,2.20E+08
2548,-34.318,-37.472,-15.79,1.74E+08
2549,-20.873,-42.248,31.148,1.42E+08
2550,-17.513,-29.225,-33.867,1.28E+08
2551,28.659,-42.18,-24.184,6.05E+07
2552,-28.687,-39.066,-24.445,1.28E+08
2553,35.514,-42.359,-12.004,1.19E+08
2554,14.071,-36.21,-35.128,1.60E+07
2555,-16.287,-41.844,33.802,1.55E+08
2556,4.2247,-35.299,37.649,1.35E+08
2557,30.004,-32.273,-23.347,7.74E+07
2558,-29.937,-37.513,23.036,1.31E+08
2559,-31.153,-42.511,20.835,1.36E+08
2560,-30.087,-26.95,23.528,1.85E+08
2561,24.751,-39.102,28.42,1.95E+08
2562,-36.598,-42.531,8.0708,1.53E+08
2563,-18.075,-22.155,33.758,1.06E+08
2564,-28.233,-33.717,-25.371,1.53E+08
2565,-32.737,-27.503,19.646,2.17E+08
2566,-35.879,-22.494,13.363,2.78E+08
2567,-35.228,-42.511,12.792,1.52E+08
2568,-8.8886,-29.256,-37.076,8.04E+07
2569,-20.954,-36.844,-31.472,1.08E+08
2570,-12.765,-41.657,-35.296,7.65E+07
2571,31.534,-38.883,-20.661,7.59E+07
2572,9.6692,-38.628,-36.453,3.27E+07
2573,-37.383,-35.052,-6.2227,2.14E+08
2574,-38.22,-22.589,2.2363,2.89E+08
2575,27.213,-42.602,25.761,1.74E+08
2576,-36.186,-22.263,-12.519,3.02E+08
2577,-37.506,-42.056,-0.35188,1.49E+08
2578,-29.657,-25.26,-24.133,2.18E+08
2579,9.5829,-33.07,-36.756,5.09E+06
2580,5.3084,-29.632,-37.743,3.29E+07
2581,-28.006,-22.142,-26.115,2.25E+08
2582,-36.316,-38.651,-10.168,1.75E+08
2583,26.292,-33.764,27.374,2.42E+08
2584,33.87,-35.73,16.928,2.90E+08
2585,-38.184,-26.251,-1.4721,2.75E+08
2586,35.99,-40.759,10.848,2.19E+08
2587,-37.64,-27.856,6.3349,2.59E+08
2588,-6.6641,-36.87,-37.216,4.52E+07
2589,-37.088,-28.755,-8.9058,2.63E+08
2590,37.641,-38.69,-2.288,1.79E+08
2591,36.566,-43.474,7.9185,1.86E+08
2592,-24.898,-42.289,28.032,1.27E+08
2593,-18.184,-31.623,33.416,1.06E+08
2594,37.181,-33.836,7.6131,2.75E+08
2595,37.803,-33.936,-3.3173,1.89E+08
2596,-33.421,-43.257,16.852,1.42E+08
2597,9.6459,-43.068,-36.178,4.08E+07
2598,-37.906,-33.908,-1.8056,2.23E+08
2599,31.653,-28.959,-21.27,1.09E+08
2600,-34.871,-26.778,15.593,2.48E+08
2601,-25.389,-21.334,28.68,1.90E+08
2602,37.326,-43.651,-2.383,1.54E+08
2603,36.058,-34.113,-11.801,1.41E+08
2604,-31.545,-22.494,21.699,2.48E+08
2605,-33.66,-27.097,-18.041,2.48E+08
2606,-3.8968,-39.898,-37.439,4.94E+07
2607,17.192,-41.064,-33.406,4.20E+07
2608,29.326,-33.101,24.141,2.96E+08
2609,-20.633,-31.948,-31.947,1.29E+08
2610,17.622,-32.658,-33.669,1.56E+07
2611,-14.746,-31.093,35.09,1.28E+08
2612,9.2432,-28.576,-37.011,3.90E+07
2613,-14.444,-23.453,35.441,1.04E+08
2614,-24.875,-23.311,-29.089,2.12E+08
2615,-36.573,-43.255,-7.9581,1.34E+08
2616,-37.233,-43.136,-3.9046,1.42E+08
2617,13.717,-35.165,35.322,1.92E+08
2618,30.972,-44.06,-20.917,7.98E+07
2619,-23.814,-28.373,-29.81,1.64E+08
2620,-20.092,-26.208,32.504,8.01E+07
2621,23.985,-43.73,28.691,1.96E+08
2622,-30.607,-21.142,-23.034,2.58E+08
2623,-21.474,-20.907,31.724,1.60E+08
2624,-38.214,-22.039,-2.4711,2.99E+08
2625,33.691,-29.395,-17.838,1.24E+08
2626,-4.4031,-33.472,37.712,1.67E+08
2627,-37.76,-25.815,-5.9264,2.81E+08
2628,-2.4667,-44.564,37.257,1.34E+08
2629,-4.3746,-43.703,-37.142,5.36E+07
2630,37.768,-34.206,3.5666,2.40E+08
2631,-36.939,-25.277,-9.8688,2.87E+08
2632,-4.3851,-27.484,-37.927,7.77E+07
2633,15.932,-39.245,34.145,2.12E+08
2634,27,-38.369,-26.352,4.58E+07
2635,-6.7093,-44.444,36.739,1.42E+08
2636,-34.772,-21.022,-16.072,3.01E+08
2637,28.816,-28.857,-24.985,9.00E+07
2638,-24.903,-44.502,-27.826,1.02E+08
2639,-27.183,-25.29,26.888,1.60E+08
2640,-33.684,-42.599,-16.419,1.31E+08
2641,27.502,-33.703,-26.162,5.23E+07
2642,-37.293,-42.511,3.7168,1.49E+08
2643,-30.058,-43.652,-22.258,1.14E+08
2644,32.476,-40.842,18.918,2.14E+08
2645,-20.363,-28.063,-32.276,1.50E+08
2646,-27.518,-29.541,-26.376,1.76E+08
2647,-37.582,-38.763,-3.0596,1.81E+08
2648,20.526,-36.21,-31.791,1.87E+07
2649,35.249,-38.267,-13.466,1.16E+08
2650,-22.927,-38.019,29.987,1.18E+08
2651,36.291,-38.29,-10.329,1.32E+08
2652,2.2098,-44.513,37.277,1.40E+08
2653,-13.813,-27.072,35.605,1.15E+08
2654,-13.624,-30.063,-35.58,1.06E+08
2655,37.675,-38.026,2.336,2.06E+08
2656,10.612,31.896,111.34,1.07E+07
2657,42.362,-24.808,-3.6405,1.39E+08
2658,35.553,-24.807,23.317,5.46E+08
2659,-20.814,-1.6026,-43.71,5.39E+08
2660,-4.6142,12.148,75.025,1.22E+08
2661,-2.9931,20.433,80.565,1.02E+08
2662,4.4998,12.073,74.892,1.55E+08
2663,52.872,-16.725,2.5904,1.20E+08
2664,58.664,-7.7444,4.137,9.72E+07
2665,44.617,-16.835,-2.1064,1.01E+08
2666,49.622,-11.169,1.1654,7.45E+07
2667,55.229,-12.034,3.3704,1.10E+08
2668,55.74,-3.0328,3.5625,5.18E+07
2669,53.219,-6.8114,2.7598,6.72E+07
2670,58.393,-16.964,4.0774,1.39E+08
2671,49.796,-20.904,1.25,1.15E+08
2672,45.321,-13.226,-1.549,8.41E+07
2673,47.923,-16.435,0.19874,9.06E+07
2674,58.861,0.18222,4.2041,4.12E+07
2675,59.738,-12.539,4.2766,1.29E+08
2676,42.086,-14.528,-4.3865,1.96E+08
2677,59.89,-3.5392,4.3166,6.80E+07
2678,46.071,-20.705,-0.99287,9.90E+07
2679,42.123,-20.467,-4.3316,1.61E+08
2680,15.013,-11.439,39.642,4.80E+08
2681,11.373,-3.9877,49.76,2.98E+08
2682,11.41,-13.838,49.749,2.36E+08
2683,14.886,-4.2456,39.68,6.75E+08
2684,12.753,-7.514,44.467,3.98E+08
2685,18.552,-14.091,34.761,5.97E+08
2686,18.818,-6.7654,34.332,8.30E+08
2687,13.832,-17.717,41.948,2.97E+08
2688,11.531,4.9293,48.409,2.51E+08
2689,17.833,-20.252,35.586,4.29E+08
2690,12.58,-0.69354,44.717,4.77E+08
2691,11.381,-8.9684,49.854,2.75E+08
2692,13.16,-12.6,43.484,3.42E+08
2693,11.328,10.536,49.206,4.67E+07
2694,11.416,-18.67,49.714,1.71E+08
2695,16.17,-16.394,37.831,4.41E+08
2696,11.243,15.167,49.413,1.90E+08
2697,20.345,-11.225,32.873,6.92E+08
2698,20.429,-22.891,32.767,4.13E+08
2699,11.209,0.88369,50.73,2.41E+08
2700,17.369,-3.7163,35.945,9.17E+08
2701,17.017,-8.7958,36.56,6.83E+08
2702,19.918,-3.6063,33.077,9.71E+08
2703,11.199,19.201,49.373,3.27E+08
2704,12.457,-19.353,45.439,2.01E+08
2705,20.564,-18.874,32.697,4.87E+08
2706,-6.8402,-19.448,-43,2.84E+08
2707,6.8403,-19.448,-43,1.15E+08
2708,39.801,-19.895,-14.067,2.73E+08
2709,7.1088,-13.627,-58.158,2.37E+08
2710,-7.1089,-13.627,-58.158,1.56E+08
2711,-12.788,-18.018,44.481,1.44E+08
2712,-11.296,-17.439,50.489,1.78E+08
2713,33.485,-11.016,24.289,1.58E+08
2714,33.645,-16.282,24.251,1.77E+08
2715,36.374,-5.2024,23.363,1.95E+08
2716,28.811,-15.107,26.478,2.42E+08
2717,27.745,-4.2246,26.945,5.43E+08
2718,30.683,-20.747,25.474,3.05E+08
2719,38.562,-16.075,22.953,1.17E+08
2720,28.744,-9.6534,26.469,3.54E+08
2721,38.787,-10.654,22.904,6.98E+07
2722,31.95,-4.8905,24.809,3.24E+08
2723,39.633,-20.684,22.78,2.23E+08
2724,27.119,-23.151,27.468,3.13E+08
2725,35.339,-20.886,23.691,3.16E+08
2726,39.941,-5.0687,22.714,1.50E+08
2727,26.958,-19.187,27.625,2.79E+08
2728,-39.076,-7.0752,-5.5852,1.99E+08
2729,-40.841,-6.5927,-10.727,1.59E+08
2730,-43.41,-5.7833,-15.322,8.40E+07
2731,-38.474,-9.9362,-2.0079,2.49E+08
2732,-37.512,-7.0752,12.286,4.04E+08
2733,-38.358,-6.5927,17.656,3.37E+08
2734,-40.09,-5.7833,22.627,2.12E+08
2735,-37.54,-9.9361,8.6582,3.61E+08
2736,0.85407,-21.702,-39.232,1.46E+08
2737,-14.788,-6.9511,51.124,6.45E+08
2738,-13.411,-0.46506,49.973,1.53E+09
2739,-15.784,-0.59904,50.06,9.50E+08
2740,-20.812,-14.466,-45.717,2.59E+08
2741,-12.67,-24.564,43.447,3.57E+07
2742,-11.457,-24.264,47.323,5.15E+07
2743,-10.815,-23.42,51.076,7.56E+07
2744,-11.801,0.9513,39.05,8.90E+08
2745,-10.936,3.4023,42.198,8.39E+08
2746,59.034,9.0609,4.6599,6.59E+07
2747,58.255,8.3146,4.6557,6.93E+07
2748,56.945,6.6911,4.2906,6.42E+07
2749,55.161,4.8152,3.952,6.03E+07
2750,53.483,2.8569,3.3699,3.92E+07
2751,51.088,0.2138,2.4514,1.74E+07
2752,48.121,-3.0704,0.94929,1.13E+07
2753,45.257,-6.2451,-0.92654,7.69E+06
2754,42.531,-9.2703,-3.1945,6.36E+07
2755,-19.968,-19.707,-42.593,2.17E+07
2756,-39.661,-0.43572,22.824,3.42E+08
2757,-38.106,-0.43163,18.689,3.94E+08
2758,-37.162,-0.4276,14.373,4.30E+08
2759,-36.854,-0.42375,9.9656,4.14E+08
2760,-38.024,-0.42374,-3.4146,2.95E+07
2761,-39.093,-0.4276,-7.7019,6.39E+07
2762,-40.772,-0.43162,-11.788,6.17E+07
2763,-43.021,-0.43572,-15.59,4.39E+07
2764,-43.786,-12.059,-16.577,7.25E+07
2765,-40.242,-12.059,23.929,5.69E+07
2766,11.467,-24.27,47.284,4.72E+07
2767,10.765,-23.41,51.228,6.51E+07
2768,51.274,-24.387,2.2661,1.20E+08
2769,55.558,-23.416,3.749,1.24E+08
2770,59.803,-21.731,4.566,1.30E+08
2771,40.338,-24.708,22.386,2.85E+08
2772,20.647,0.83996,-60.42,2.59E+08
2773,-37.479,-2.77E-11,-35.343,7.33E+07
2774,-31.649,-2.34E-11,41.166,1.81E+08
2775,-46.019,-3.40E-11,-44.866,6.48E+06
2776,-38.254,-2.83E-11,49.788,1.84E+08
2777,-26.994,-2.00E-11,31.085,2.14E+08
2778,-29.459,-2.18E-11,-24.714,1.56E+08
2779,-25.242,-1.87E-11,40.587,2.23E+08
2780,33.076,2.45E-11,-26.762,1.93E+08
2781,-49.483,-3.66E-11,-31.718,1.29E+07
2782,-25.953,-1.92E-11,-36.448,2.90E+08
2783,-39.992,-2.96E-11,-30.146,7.07E+07
2784,-41.144,-3.04E-11,45.326,1.86E+08
2785,-31.674,-2.34E-11,-46.272,2.26E+07
2786,-49.64,-3.67E-11,-40.764,5.84E+06
2787,-33.051,-2.44E-11,51.131,2.01E+08
2788,33.596,2.48E-11,-36.744,1.81E+08
2789,33.078,2.45E-11,-48.044,1.15E+08
2790,-38.267,-2.83E-11,31.269,2.48E+08
2791,-43.331,-3.20E-11,-54.507,5.24E+06
2792,-21.979,-1.62E-11,33.029,2.43E+08
2793,-37.37,-2.76E-11,-18.395,8.93E+07
2794,22.352,1.65E-11,-30.821,2.05E+08
2795,-31.295,-2.31E-11,22.278,2.32E+08
2796,-45.817,-3.39E-11,51.763,1.59E+08
2797,-40.18,-2.97E-11,38.784,2.02E+08
2798,-38.264,-2.83E-11,57.765,1.63E+08
2799,-24.861,-1.84E-11,48.963,2.83E+08
2800,-19.932,-1.47E-11,41.53,3.51E+08
2801,30.91,2.29E-11,-21.938,1.64E+08
2802,-33.469,-2.47E-11,-30.028,1.37E+08
2803,-43.354,-3.20E-11,-38.755,2.31E+07
2804,-22.186,-1.64E-11,-31.639,3.15E+08
2805,33.667,2.49E-11,-42.293,1.52E+08
2806,28.333,2.09E-11,-52.029,1.43E+08
2807,29.34,2.17E-11,-34.066,2.02E+08
2808,-55.503,-4.10E-11,-39.023,2.61E+06
2809,26.806,1.98E-11,-25.178,1.65E+08
2810,32.221,2.38E-11,18.339,2.53E+08
2811,-50.782,-3.75E-11,-47.024,3.20E+06
2812,-35.737,-2.64E-11,36.514,2.02E+08
2813,-36.393,-2.69E-11,-24.292,1.06E+08
2814,-31.72,-2.34E-11,-36.223,1.44E+08
2815,-42.728,-3.16E-11,-24.533,6.11E+07
2816,-35.151,-2.60E-11,45.75,1.87E+08
2817,28.333,2.09E-11,-44.479,1.85E+08
2818,-27.828,-2.06E-11,-30.834,2.20E+08
2819,-34.781,-2.57E-11,26.774,2.60E+08
2820,-33.546,-2.48E-11,-14.333,7.47E+07
2821,28.232,2.09E-11,-38.838,2.06E+08
2822,-29.978,-2.22E-11,47.167,2.03E+08
2823,-17.013,-1.26E-11,34.618,3.25E+08
2824,33.863,2.50E-11,-53.78,5.83E+07
2825,32.971,2.44E-11,-14.699,1.27E+08
2826,-27.913,-2.06E-11,52.561,2.38E+08
2827,-28.724,-2.12E-11,-41.69,1.45E+08
2828,-31.739,-2.35E-11,-19.819,1.07E+08
2829,-29.709,-2.20E-11,36.197,1.97E+08
2830,-25.391,-1.88E-11,25.685,2.05E+08
2831,-47.137,-3.48E-11,-50.104,3.47E+06
2832,-31.191,-2.31E-11,56.491,1.98E+08
2833,-45.879,-3.39E-11,43.776,1.82E+08
2834,34.555,2.55E-11,13.055,1.37E+08
2835,16.199,1.20E-11,-33.331,2.07E+08
2836,-49.927,-3.69E-11,53.429,1.39E+08
2837,-60.499,-4.47E-11,-42.193,3.10E+06
2838,-38.75,-2.86E-11,62.113,1.46E+08
2839,-41.276,-3.05E-11,53.765,1.67E+08
2840,-20.848,-1.54E-11,37.59,2.85E+08
2841,-25.009,-1.85E-11,-26.945,2.12E+08
2842,-45.775,-3.38E-11,-28.455,3.48E+07
2843,-44.667,-3.30E-11,-33.254,3.15E+07
2844,-52.274,-3.86E-11,-35.492,3.75E+06
2845,-12.491,-9.23E-12,-33.724,1.59E+08
2846,-17.358,-1.28E-11,-32.943,3.00E+08
2847,-30.983,-2.29E-11,17.338,2.24E+08
2848,-46.817,-3.46E-11,-58.359,3.18E+06
2849,-34.451,-2.55E-11,60.409,1.68E+08
2850,-49.271,-3.64E-11,48.641,1.60E+08
2851,-44.222,-3.27E-11,38.814,1.99E+08
2852,-47.801,-3.53E-11,-36.074,1.40E+07
2853,-29.562,-2.19E-11,26.494,2.18E+08
2854,35.206,2.60E-11,-22.579,2.02E+08
2855,34.558,2.55E-11,-10.382,1.20E+08
2856,-33.657,-2.49E-11,-41.808,6.45E+07
2857,29.071,2.15E-11,21.188,3.39E+08
2858,-37.428,-2.77E-11,42.024,1.89E+08
2859,20.397,1.51E-11,-34.253,2.47E+08
2860,34.927,2.58E-11,8.4684,5.05E+07
2861,-34.107,-2.52E-11,-9.4221,4.97E+07
2862,-7.7286,-5.71E-12,-34.247,5.12E+07
2863,11.527,8.52E-12,-34.247,1.50E+08
2864,-24.955,-1.84E-11,35.698,2.21E+08
2865,-45.562,-3.37E-11,55.346,1.42E+08
2866,33.532,2.48E-11,-31.727,1.84E+08
2867,-34.21,-2.53E-11,-49.792,1.06E+07
2868,-41.732,-3.08E-11,58.393,1.44E+08
2869,34.655,2.56E-11,-18.603,1.80E+08
2870,-21.98,-1.62E-11,44.903,3.32E+08
2871,29.667,2.19E-11,-55.857,9.34E+07
2872,-41.61,-3.08E-11,34.794,2.23E+08
2873,35.059,2.59E-11,-3.0445,1.10E+08
2874,-22.702,-1.68E-11,-40.873,4.68E+08
2875,-18.937,-1.40E-11,29.964,2.31E+08
2876,-36.411,-2.69E-11,-47.163,9.29E+06
2877,-38.841,-2.87E-11,-52.063,7.73E+06
2878,-16.284,-1.20E-11,44.984,5.48E+08
2879,24.861,1.84E-11,-34.089,2.28E+08
2880,-56.387,-4.17E-11,-45.064,2.55E+06
2881,-48.661,-3.60E-11,-53.95,2.99E+06
2882,-41.368,-3.06E-11,-44.562,1.21E+07
2883,27.626,2.04E-11,-48.368,1.75E+08
2884,-15.763,-1.17E-11,39.623,4.62E+08
2885,24.109,1.78E-11,25.39,5.17E+08
2886,17.979,1.33E-11,-29.854,1.75E+08
2887,-40.467,-2.99E-11,-21.31,7.85E+07
2888,-15.129,-1.12E-11,31.574,2.61E+08
2889,22.392,1.66E-11,-26.789,1.65E+08
2890,-27.593,-2.04E-11,21.784,2.07E+08
2891,-26.742,-1.98E-11,44.557,2.18E+08
2892,-2.9433,-2.18E-12,-34.805,2.42E+07
2893,27.403,2.03E-11,-29.587,1.90E+08
2894,6.7418,4.98E-12,-34.805,8.22E+07
2895,-43.017,-3.18E-11,-49.307,3.84E+06
2896,35.627,2.63E-11,-6.8545,1.27E+08
2897,-32.555,-2.41E-11,12.169,2.27E+08
2898,-43.306,-3.20E-11,48.259,1.77E+08
2899,-22.789,-1.68E-11,28.702,2.14E+08
2900,30.722,2.27E-11,-17.669,1.29E+08
2901,-42.112,-3.11E-11,41.867,1.92E+08
2902,-52.946,-3.91E-11,50.931,1.41E+08
2903,20.283,1.50E-11,28.979,6.45E+08
2904,35.383,2.62E-11,1.141,1.13E+08
2905,35.788,2.65E-11,18.389,2.23E+08
2906,-35.596,-2.63E-11,54.496,1.85E+08
2907,-35.646,-2.64E-11,64.484,1.46E+08
2908,-32.171,-2.38E-11,31.381,2.19E+08
2909,1.8993,1.40E-12,-34.992,3.24E+07
2910,-50.588,-3.74E-11,-50.637,2.58E+06
2911,-5.1313,-17.065,63.326,2.86E+07
2912,4.8353,-16.933,63.468,1.46E+07
2913,3.5672,-18.137,62.097,3.83E+06
2914,-3.951,-18.286,61.914,2.15E+07
2915,1.8312,-24.616,47.788,1.70E+08
2916,-1.6627,-24.671,47.431,1.74E+08
2917,-6.0548,-24.723,47.066,1.45E+08
2918,6.2933,-24.59,47.942,1.40E+08
2919,-7.025,-23.97,50.792,1.11E+08
2920,4.7714,-23.525,52.291,1.19E+08
2921,-4.6343,-21.773,56.535,6.88E+07
2922,-5.8781,-19.798,59.884,3.13E+07
2923,6.9895,-20.07,59.478,4.82E+07
2924,-0.22395,-19.175,60.764,1.30E+07
2925,-4.4437,-23.418,52.612,1.13E+08
2926,2.8802,-21.364,57.316,6.70E+07
2927,-2.002,-20.489,58.822,4.22E+07
2928,-0.26882,-23.429,52.58,1.26E+08
2929,-11.563,46.564,74.624,7.63E+07
2930,-11.599,28.027,53.675,6.57E+08
2931,-11.703,24.592,62.714,7.10E+08
2932,-11.5,26.696,70.75,4.54E+08
2933,-11.634,34.355,76.393,1.49E+08
2934,-11.452,39.582,77.198,1.09E+08
2935,-11.505,51.298,104.86,3.21E+07
2936,-11.553,47.064,103.92,3.40E+07
2937,-11.803,42.414,104.57,2.91E+07
2938,-11.892,37.883,106.8,2.48E+07
2939,7.2695,19.447,79.854,3.01E+08
2940,-4.9926,23.399,83.874,5.38E+07
2941,-4.5497,26.65,88.789,2.24E+07
2942,-4.6912,28.507,93.087,1.57E+07
2943,4.1982,28.149,92.096,9.80E+07
2944,3.497,25.104,86.188,1.29E+08
2945,5.3114,23.249,83.691,1.91E+08
2946,-0.15185,29.138,95.173,4.10E+07
2947,-0.8724,24.627,85.492,4.13E+07
2948,-0.41808,27.061,89.597,4.49E+07
2949,-14.72,-13.511,37.535,5.32E+08
2950,-19.145,-13.938,34.92,5.41E+08
2951,-23.105,-13.929,32.447,5.31E+08
2952,-26.339,-13.929,29.882,4.81E+08
2953,-29.291,-13.929,26.995,4.20E+08
2954,-31.928,-13.929,23.818,3.43E+08
2955,-34.603,-14.256,19.108,3.04E+08
2956,11.392,47.664,74.047,1.15E+08
2957,11.969,34.782,49.744,3.05E+08
2958,11.654,28.955,52.793,6.20E+08
2959,11.6,37.881,77.055,1.53E+08
2960,11.542,28.779,73.193,4.11E+08
2961,11.812,24.8,64.852,6.33E+08
2962,11.616,25.138,58.848,6.72E+08
2963,11.893,42.962,76.117,1.16E+08
2964,11.777,26.52,69.968,4.75E+08
2965,12.249,25.017,61.378,5.23E+08
2966,11.838,52.129,105.56,4.20E+07
2967,11.877,40.16,105.45,6.38E+07
2968,11.747,48.143,104.22,6.44E+07
2969,11.807,43.698,104.3,6.60E+07
2970,11.94,36.754,107.75,5.24E+07
2971,-14.248,-21.444,-37.085,1.40E+08
2972,39.315,-26.56,3.5588,2.28E+08
2973,38.643,-26.431,8.6665,3.31E+08
2974,36.268,-26.403,15.98,4.73E+08
2975,33.865,-26.856,19.777,5.76E+08
2976,36.981,-26.955,12.817,4.50E+08
2977,39.175,-26.885,-1.2052,1.83E+08
2978,13.623,-21.492,-37.267,1.24E+08
2979,17.923,-21.429,-35.472,1.21E+08
2980,21.532,-21.41,-33.427,1.21E+08
2981,24.908,-21.128,-31.399,1.15E+08
2982,27.647,-21.434,-28.544,1.20E+08
2983,30.784,-21.41,-25.167,1.32E+08
2984,33.203,-21.401,-21.894,1.41E+08
2985,35.325,-21.011,-19.246,1.47E+08
2986,-3.5939,12.224,72.84,3.80E+08
2987,-3.662,5.7849,69.314,3.78E+08
2988,3.4709,12.714,73.052,3.48E+08
2989,3.5978,4.8646,68.86,4.28E+08
2990,-34.743,-13.929,-19.483,3.10E+08
2991,-32.537,-13.929,-22.978,3.21E+08
2992,-30.374,-13.678,-26.194,3.11E+08
2993,-27.369,-13.922,-28.952,3.43E+08
2994,-36.421,-14.167,-15.56,3.18E+08
2995,9.4218,-26.852,38.071,1.52E+08
2996,35.677,-23.223,-14.653,1.93E+08
2997,37.689,-20.669,-15.479,2.02E+08
2998,52.354,3.478,4.9851,1.03E+08
2999,46.115,0.71525,4.8898,1.27E+08
3000,-3.522,23.6,-61.104,7.12E+07
3001,3.5122,23.61,-61.041,6.64E+07
3002,-3.76,25.194,-44.93,1.28E+08
3003,3.5218,25.254,-45.368,1.34E+08
3004,-4.8778,23.562,-54.588,9.66E+07
3005,-4.991,24.048,-49.255,1.23E+08
3006,5.6561,22.778,-56.658,9.71E+07
3007,5.7722,23.187,-51.856,1.25E+08
3008,-8.2317,19.208,-58.463,1.32E+08
3009,-8.9628,14.907,-56.748,2.21E+08
3010,-7.0384,10.134,-56.323,4.13E+08
3011,-3.4094,7.429,-56.039,6.36E+08
3012,0.90471,6.764,-56.385,7.33E+08
3013,5.1412,8.321,-56.567,5.60E+08
3014,8.0047,11.571,-56.953,3.15E+08
3015,8.9999,15.605,-57.623,1.53E+08
3016,8.2736,19.135,-58.232,1.04E+08
3017,8.2601,20.217,-48.244,2.43E+08
3018,8.88,15.195,-47.82,3.63E+08
3019,7.2613,11.328,-47.756,4.17E+08
3020,3.4094,8.3683,-47.103,3.89E+08
3021,-1.0853,7.7665,-47.04,3.72E+08
3022,-5.4421,9.5701,-46.775,3.40E+08
3023,-8.1871,12.993,-47.024,3.13E+08
3024,-8.9999,16.803,-46.86,2.92E+08
3025,-8.3062,20.109,-48.234,2.10E+08
3026,-5.84,22.492,-57.916,9.08E+07
3027,5.6788,23.709,-47.624,1.59E+08
3028,-7.8827,20.369,-54.161,1.50E+08
3029,8.4869,19.083,-53.5,1.76E+08
3030,-7.7543,11.653,-51.828,3.52E+08
3031,-4.5154,8.4497,-51.532,4.65E+08
3032,-0.55384,7.2473,-51.514,5.44E+08
3033,3.8971,8.113,-51.605,5.06E+08
3034,7.0331,10.487,-52.906,3.93E+08
3035,8.8047,14.316,-52.358,2.79E+08
3036,-8.9961,16.053,-51.152,2.55E+08
3037,7.2802,-17.069,-54.752,3.55E+07
3038,7.1795,-18.986,-50.124,7.51E+06
3039,7.2089,-18.341,-52.354,1.59E+07
3040,-7.105,-18.759,-50.415,8.20E+07
3041,-7.1043,-16.916,-54.416,3.64E+07
3042,-6.8642,-14.256,-46.114,1.85E+08
3043,-6.7632,-15.415,-44.396,2.20E+08
3044,6.7632,-14.302,-45.632,1.53E+08
3045,-4.3984,-7.4997,69.741,9.66E+07
3046,-4.4148,-3.1132,71.399,7.34E+07
3047,4.3984,-2.3555,71.587,9.40E+07
3048,4.4148,-6.7956,70.078,9.99E+07
3049,-50.123,-1.205,85.532,9.95E+06
3050,-69.493,-1.2436,70.042,1.14E+07
3051,-54.463,-1.65,88.168,1.53E+07
3052,-58.65,-1.4026,88.365,2.33E+07
3053,-63.365,-1.4971,87.26,2.67E+07
3054,-67.531,-1.4362,84.111,2.70E+07
3055,-70.287,-1.5051,79.501,2.11E+07
3056,-70.975,-1.5299,75.156,1.53E+07
3057,-80.838,-1.205,-57.387,3.51E+05
3058,-63.719,-1.2436,-75.333,5.93E+05
3059,-83.086,-1.65,-61.94,9.50E+05
3060,-82.917,-1.4026,-66.129,7.26E+05
3061,-81.405,-1.4971,-70.729,2.86E+05
3062,-77.905,-1.4362,-74.605,5.21E+05
3063,-73.073,-1.5051,-76.949,9.35E+05
3064,-68.684,-1.5299,-77.255,9.79E+05
3065,-69.645,-11.295,70.552,1.02E+07
3066,-49.669,-11.256,85.253,1.21E+07
3067,-71.068,-10.85,75.427,1.71E+07
3068,-70.175,-11.097,79.523,2.22E+07
3069,-67.886,-11.003,83.791,2.79E+07
3070,-63.766,-11.064,87,2.86E+07
3071,-58.601,-10.995,88.469,2.22E+07
3072,-54.225,-10.97,88.008,1.49E+07
3073,-64.214,-11.295,-75.529,6.03E+05
3074,-80.6,-11.256,-56.91,3.41E+05
3075,-68.946,-10.85,-77.372,1.16E+06
3076,-73.104,-11.097,-76.838,1.24E+06
3077,-77.555,-11.003,-74.931,9.67E+05
3078,-81.111,-11.064,-71.106,3.55E+05
3079,-83.025,-10.995,-66.088,3.53E+05
3080,-82.947,-10.97,-61.69,6.52E+05
3081,10.614,-19.004,60.156,7.79E+07
3082,10.591,-15.653,64.106,7.28E+07
3083,10.591,-12.203,67.001,6.67E+07
3084,10.591,-8.3518,69.339,4.83E+07
3085,10.595,-3.9478,71.136,2.66E+07
3086,10.612,26.762,87.961,2.34E+08
3087,10.612,21.145,80.712,4.34E+08
3088,10.612,13.627,75.461,4.83E+08
3089,-10.612,13.627,75.461,3.18E+08
3090,-10.612,21.145,80.712,2.79E+08
3091,-10.612,26.762,87.961,1.31E+08
3092,-10.614,-3.1911,71.345,3.82E+07
3093,-10.591,-8.0305,69.499,5.72E+07
3094,-10.591,-11.909,67.209,6.78E+07
3095,-10.591,-15.395,64.355,6.66E+07
3096,-10.595,-18.556,60.8,7.12E+07
3097,-12.557,46.677,52.757,1.31E+08
3098,-12.623,49.764,56.405,7.45E+07
3099,-12.638,51.377,60.923,5.26E+07
3100,-12.823,33.832,121.66,1.27E+06
3101,-12.853,57.427,112.58,6.25E+06
3102,-12.312,59.261,117.97,4.36E+06
3103,-12.603,58.217,122.49,4.12E+06
3104,-12.422,55.679,126.95,2.91E+06
3105,-12.558,51.314,129.93,1.85E+06
3106,-12.423,45.317,131.17,5.72E+05
3107,-12.507,40.331,129.82,1.29E+05
3108,-12.451,36.349,126.95,6.48E+05
3109,67.195,-16.264,22.386,6.39E+07
3110,48.517,-24.707,22.154,9.77E+07
3111,62.863,-19.99,22.207,6.11E+07
3112,58.518,-22.299,22.207,6.38E+07
3113,53.852,-23.858,22.207,7.22E+07
3114,39.896,-10.889,-58.962,5.14E+06
3115,39.651,-19.651,-49.481,1.24E+07
3116,39.705,-14.9,-57.349,4.71E+06
3117,39.786,-17.851,-54.047,9.59E+06
3118,39.748,-19.238,-51.013,1.16E+07
3119,12.602,-13.621,-58.491,1.45E+08
3120,-11.687,-13.414,-58.598,1.02E+08
3121,11.995,-16.706,-56.147,1.07E+08
3122,13.058,-18.725,-53.272,7.09E+07
3123,-11.708,-18.661,-53.397,1.03E+08
3124,-12.176,-16.733,-56.119,1.11E+08
3125,-15.313,-15.115,-57.552,8.23E+07
3126,-15.692,-18.76,-53.2,8.30E+07
3127,33.593,-18.047,-54.45,1.19E+07
3128,34.097,-14.709,-57.838,1.45E+07
3129,17.099,-19.553,-51.135,6.36E+07
3130,24.801,-18.959,-52.777,4.34E+07
3131,28.985,-18.965,-52.765,2.43E+07
3132,17.369,-12.958,-58.817,1.19E+08
3133,21.035,-13.994,-58.285,8.15E+07
3134,26.122,-13.45,-58.58,4.04E+07
3135,30.477,-12.831,-58.873,2.42E+07
3136,20.577,-18.833,-53.051,6.29E+07
3137,17.314,-16.841,-56.003,9.58E+07
3138,28.667,-16.592,-56.266,2.53E+07
3139,22.858,-16.781,-56.067,5.88E+07
3140,-19.697,-10.6,-59.314,6.22E+07
3141,-19.552,-19.742,-49.363,1.88E+07
3142,-19.705,-18.129,-53.763,2.94E+07
3143,-19.786,-15.154,-57.043,4.09E+07
3144,20.724,1.0458,-45.699,4.44E+08
3145,20.819,0.93991,-53.175,4.37E+08
3146,-18.618,1.9049,-40.777,5.14E+08
3147,1.9702,55.757,108.15,5.22E+07
3148,-2.4475,55.649,107.91,5.18E+07
3149,8.856,2.676,40.909,6.48E+08
3150,-5.9244,2.1004,40.232,4.20E+08
3151,-2.8477,4.3503,42.351,5.00E+08
3152,1.2515,4.0465,42.135,4.84E+08
3153,4.9734,4.6067,42.521,5.13E+08
3154,11.157,0.60777,37.533,7.13E+08
3155,7.806,0.50178,37.228,4.83E+08
3156,3.9331,1.1615,38.778,3.84E+08
3157,-1.5331,1.107,38.674,2.76E+08
3158,-5.6784,0.47244,37.138,2.65E+08
3159,-6.1701,4.6385,42.542,5.40E+08
3160,-20,1.0799,-48.062,3.50E+08
3161,-20,-6.8865,-54.884,1.05E+08
3162,-20,6.1997,-52.428,2.66E+08
3163,-20,1.1009,-54.819,2.33E+08
3164,-20,6.8145,-46.385,2.38E+08
3165,-20,-11.308,-54.383,6.75E+07
3166,-20,-9.0601,-50.161,1.80E+08
3167,-20,-3.826,-50.571,2.36E+08
3168,-20,5.0467,-56.771,2.28E+08
3169,-20,-13.683,-50.169,1.05E+08
3170,-20,2.8322,-44.132,3.65E+08
3171,-20,8.2044,-56.261,2.05E+08
3172,-20,-2.9077,-56.101,1.50E+08
3173,40,-13.747,-16.889,2.08E+08
3174,40,-9.8522,-38.479,3.06E+07
3175,40,-7.3647,-12.887,2.42E+08
3176,40,-7,-21.147,2.03E+08
3177,40,-13.385,-22.707,1.53E+08
3178,40,-6.4254,-7.4326,2.20E+08
3179,40,-14.613,-47.409,2.35E+06
3180,40,-9.1161,-45.866,1.51E+07
3181,40,-14.731,-11.84,2.60E+08
3182,40,-8.0441,-26.466,1.58E+08
3183,40,-5.5,-42.632,5.98E+07
3184,40,-14.5,-41.76,2.38E+07
3185,40,-5.2206,-48.57,2.34E+07
3186,40,-12.333,-27.894,1.15E+08
3187,40,-5.3335,-36.415,1.40E+08
3188,40,-6.0374,-3.5403,1.54E+08
3189,40,-14.535,-35.782,7.35E+07
3190,40,-15.072,-30.655,1.21E+08
3191,40,-10.737,-8.9994,2.81E+08
3192,40,-4.4673,-28.622,2.09E+08
3193,40,-6.1903,-17.301,2.34E+08
3194,40,-15.751,-26.431,1.26E+08
3195,40,-4.6161,-54.74,9.53E+06
3196,40,-4.25,-31.421,1.67E+08
3197,64.906,-18.92,10.613,9.47E+07
3198,66.953,-17.222,12.937,9.30E+07
3199,51.708,-24.596,7.3701,8.98E+07
3200,52.688,-24.416,12.867,8.63E+07
3201,57.782,-22.918,10.513,8.80E+07
3202,61.084,-21.381,10.271,8.99E+07
3203,54.046,-24.112,17.683,8.31E+07
3204,58.21,-22.745,16.02,8.01E+07
3205,62.379,-20.638,17.356,7.57E+07
3206,65.114,-18.761,15.579,8.27E+07
3207,61.577,-21.108,14.212,8.21E+07
3208,45.324,0.72277,10.694,1.61E+08
3209,49.355,2.0867,9.2936,1.46E+08
3210,53.08,4.1039,10.444,1.39E+08
3211,52.594,3.7924,17.347,1.79E+08
3212,48.832,1.8655,18.231,1.98E+08
3213,44.553,0.54627,16.612,2.01E+08
3214,55.379,5.81,14.061,1.47E+08
3215,49.233,2.0339,14.33,1.75E+08
3216,1.871,31.94,-63.638,1.00E+07
3217,-3.3672,-14.593,64.569,8.75E+07
3218,-3.555,-8.5587,65.793,1.98E+08
3219,-65.227,-1.5202,62.638,7.91E+07
3220,-40.907,-1.457,76.116,1.13E+08
3221,-43.82,-1.5631,79.49,7.85E+07
3222,-56.881,-1.5858,-70.637,5.38E+05
3223,-75.152,-1.5204,-50.4,2.36E+06
3224,-65.258,-10.98,62.684,7.89E+07
3225,-75.113,-10.98,-50.36,1.96E+06
3226,-53.503,-11.043,-67.856,1.53E+06
3227,-56.957,-10.937,-70.673,1.42E+06
3228,-56.618,-0.46901,49.466,1.28E+08
3229,-53.782,-0.46062,45.112,1.38E+08
3230,-51.003,-0.51426,40.743,1.48E+08
3231,-47.429,-0.47144,35.311,1.71E+08
3232,-50.437,-0.49128,-23.935,1.26E+07
3233,-53.991,-0.48592,-27.753,1.60E+07
3234,-57.404,-0.47559,-31.427,1.38E+07
3235,-60.772,-0.4773,-35.037,9.87E+06
3236,-64.344,-0.46793,-38.88,6.21E+06
3237,-64.396,-12.033,-38.937,6.42E+06
3238,-60.88,-12.04,-35.175,1.16E+07
3239,-57.415,-11.985,-31.387,1.84E+07
3240,-52.996,-12.029,-26.706,2.39E+07
3241,69.733,-13.597,4.6186,1.48E+08
3242,73.404,-9.9575,4.8056,1.57E+08
3243,76.677,-6.4009,4.8172,1.53E+08
3244,80.115,-2.637,4.8082,1.43E+08
3245,83.423,0.97102,4.8096,1.31E+08
3246,86.709,4.5531,4.8127,1.19E+08
3247,89.993,8.1303,4.817,1.07E+08
3248,93.276,11.707,4.8219,9.51E+07
3249,96.662,15.367,4.8485,8.12E+07
3250,69.741,-13.583,22.383,7.34E+07
3251,95.45,14.041,22.149,4.68E+07
3252,89.349,7.3782,22.145,5.86E+07
3253,82.796,0.25845,22.17,7.09E+07
3254,76.901,-6.1297,22.202,8.01E+07
3255,73.521,-9.746,22.248,8.12E+07
3256,92.466,10.855,22.201,5.19E+07
3257,19.769,5.551,-61.017,9.53E+07
3258,19.627,13.842,-43.895,4.89E+07
3259,19.649,13.265,-49.213,8.17E+07
3260,19.6,12.779,-54.211,8.64E+07
3261,63.26,13.304,4.6196,5.43E+07
3262,72.379,23.679,4.851,4.06E+07
3263,66.51,17.217,4.808,5.03E+07
3264,75.031,26.781,5.0664,3.68E+07
3265,-19.847,13.606,-43.779,2.92E+07
3266,-19.486,12.909,-53.676,8.86E+07
3267,-19.597,-7.8388,-59.773,9.12E+07
3268,-19.649,1.9608,-60.762,1.66E+08
3269,4.3605,-7.0417,-31.702,5.86E+07
3270,4.3605,-11.736,-31.702,7.62E+07
3271,4.3605,-16.431,-31.702,1.14E+08
3272,4.3605,-21.125,-31.702,1.55E+08
3273,4.5949,-25.34,-31.668,1.80E+08
3274,4.9571,-29.642,-31.614,1.76E+08
3275,5.3974,-34.116,-31.542,1.60E+08
3276,4.3427,-39.005,-31.704,1.37E+08
3277,2.3914,-37.852,31.911,1.92E+08
3278,7.1207,-37.852,31.198,3.54E+08
3279,11.691,-37.852,29.788,4.69E+08
3280,16,-37.852,27.713,4.91E+08
3281,19.952,-37.852,25.019,4.00E+08
3282,23.458,-37.852,21.766,2.39E+08
3283,26.44,-37.852,18.026,9.99E+07
3284,28.831,-37.852,13.884,1.04E+08
3285,30.578,-37.852,9.4322,1.48E+08
3286,31.643,-37.852,4.7694,1.63E+08
3287,32,-37.852,-1.96E-15,1.71E+08
3288,31.643,-37.852,-4.7694,1.65E+08
3289,30.578,-37.852,-9.4322,1.66E+08
3290,28.831,-37.852,-13.884,1.53E+08
3291,26.44,-37.852,-18.026,1.36E+08
3292,23.458,-37.852,-21.766,1.35E+08
3293,19.729,-37.446,-25.195,1.38E+08
3294,15.615,-37.193,-27.932,1.49E+08
3295,10.662,-36.753,-30.172,1.56E+08
3296,-7.5523,-36.619,-31.096,1.39E+08
3297,-12.568,-37.26,-29.429,1.59E+08
3298,-16.6,-37.65,-27.358,1.70E+08
3299,-20.327,-37.747,-24.715,1.79E+08
3300,-23.759,-37.468,-21.436,1.59E+08
3301,-26.44,-37.852,-18.026,1.41E+08
3302,-28.831,-37.852,-13.884,1.19E+08
3303,-30.578,-37.852,-9.4322,9.57E+07
3304,-31.643,-37.852,-4.7694,7.53E+07
3305,-32,-37.852,5.88E-15,8.36E+07
3306,-31.643,-37.852,4.7694,1.23E+08
3307,-30.578,-37.852,9.4322,1.65E+08
3308,-28.831,-37.852,13.884,1.96E+08
3309,-26.44,-37.852,18.026,2.19E+08
3310,-23.458,-37.852,21.766,2.33E+08
3311,-19.952,-37.852,25.019,2.67E+08
3312,-16,-37.852,27.713,2.70E+08
3313,-11.691,-37.852,29.788,2.65E+08
3314,-7.1207,-37.852,31.198,2.03E+08
3315,-2.3914,-37.852,31.911,1.25E+08
3316,-6.5047,-4.7842,-31.332,9.18E+07
3317,-11.585,-5.046,-29.829,1.52E+08
3318,-16.353,-4.3926,-27.506,1.49E+08
3319,-20.36,-4.3926,-24.688,1.55E+08
3320,-23.89,-4.3926,-21.29,1.66E+08
3321,-26.86,-4.3926,-17.394,1.41E+08
3322,-29.2,-4.3926,-13.09,8.96E+07
3323,-30.856,-4.3926,-8.4794,5.06E+07
3324,-31.789,-4.3926,-3.6699,1.10E+08
3325,-31.977,-4.3926,1.2257,1.34E+08
3326,-31.415,-4.3926,6.0925,1.16E+08
3327,-30.116,-4.3926,10.817,9.68E+07
3328,-28.112,-4.3926,15.287,1.28E+08
3329,-22.19,-4.3926,23.057,1.90E+08
3330,-18.41,-4.3926,26.174,1.74E+08
3331,-14.199,-4.3926,28.677,1.24E+08
3332,-9.6551,-4.3926,30.509,1.58E+08
3333,-4.8848,-4.3926,31.625,2.11E+08
3334,3.22E-12,-4.3926,32,2.13E+08
3335,4.8848,-4.3926,31.625,2.10E+08
3336,9.6551,-4.3926,30.509,2.01E+08
3337,14.199,-4.3926,28.677,2.16E+08
3338,18.41,-4.3926,26.174,3.04E+08
3339,22.19,-4.3926,23.057,3.57E+08
3340,25.449,-4.3926,19.399,3.10E+08
3341,28.112,-4.3926,15.287,2.00E+08
3342,30.116,-4.3926,10.817,1.02E+08
3343,31.415,-4.3926,6.0925,9.61E+07
3344,31.977,-4.3926,1.2257,1.30E+08
3345,31.789,-4.3926,-3.6699,1.17E+08
3346,30.856,-4.3926,-8.4794,1.12E+08
3347,29.2,-4.3926,-13.09,1.04E+08
3348,26.86,-4.3926,-17.394,1.17E+08
3349,23.89,-4.3926,-21.29,1.33E+08
3350,20.852,-4.7349,-24.274,1.42E+08
3351,17.286,-5.4908,-26.93,1.35E+08
3352,12.674,-5.0037,-29.383,1.00E+08
3353,8.355,-4.6141,-30.89,6.94E+07
3354,-25.449,-4.3926,19.399,1.74E+08
3355,-4.2584,-8.3851,-31.715,7.84E+07
3356,-4.9025,-12.681,-31.622,1.10E+08
3357,-5.3974,-17.523,-31.542,1.47E+08
3358,-4.6324,-21.811,-31.663,1.65E+08
3359,-4.8223,-26.481,-31.635,1.64E+08
3360,-5.3974,-31.607,-31.542,1.45E+08
3361,-3.9671,-34.838,-31.753,1.43E+08
3362,10.052,-9.3013,-30.38,9.55E+07
3363,9.4025,-13.72,-30.587,1.12E+08
3364,8.9549,-18.409,-30.721,1.43E+08
3365,9.2123,-22.475,-30.645,1.74E+08
3366,9.5429,-26.385,-30.544,1.84E+08
3367,9.9692,-30.985,-30.407,1.76E+08
3368,4.7694,-33.454,31.643,2.68E+08
3369,-1.52E-15,-33.454,32,1.10E+08
3370,9.4322,-33.454,30.578,4.22E+08
3371,13.884,-33.454,28.831,5.06E+08
3372,18.026,-33.454,26.44,4.82E+08
3373,21.766,-33.454,23.458,3.41E+08
3374,25.019,-33.454,19.952,1.66E+08
3375,27.713,-33.454,16,9.94E+07
3376,29.788,-33.454,11.691,1.19E+08
3377,31.198,-33.454,7.1207,1.30E+08
3378,31.911,-33.454,2.3914,1.34E+08
3379,31.911,-33.454,-2.3914,1.49E+08
3380,31.198,-33.454,-7.1207,1.56E+08
3381,29.788,-33.454,-11.691,1.52E+08
3382,27.713,-33.454,-16,1.42E+08
3383,25.019,-33.454,-19.952,1.38E+08
3384,21.48,-32.882,-23.719,1.49E+08
3385,17.781,-32.754,-26.605,1.59E+08
3386,14.041,-32.245,-28.755,1.70E+08
3387,-11.335,-32.055,-29.925,1.51E+08
3388,-16.117,-32.733,-27.645,1.68E+08
3389,-18.923,-34.125,-25.805,1.68E+08
3390,-22.311,-33.034,-22.94,1.53E+08
3391,-25.465,-33.002,-19.379,1.28E+08
3392,-27.922,-33.315,-15.632,1.08E+08
3393,-29.788,-33.454,-11.691,9.06E+07
3394,-31.198,-33.454,-7.1207,7.04E+07
3395,-31.911,-33.454,-2.3914,6.90E+07
3396,-31.911,-33.454,2.3914,1.00E+08
3397,-31.198,-33.454,7.1207,1.43E+08
3398,-29.788,-33.454,11.691,1.71E+08
3399,-27.713,-33.454,16,1.84E+08
3400,-25.019,-33.454,19.952,1.99E+08
3401,-21.766,-33.454,23.458,2.27E+08
3402,-18.026,-33.454,26.44,2.68E+08
3403,-13.884,-33.454,28.831,2.73E+08
3404,-9.4322,-33.454,30.578,2.55E+08
3405,-4.7694,-33.454,31.643,1.55E+08
3406,-9.6551,-10.386,-30.509,1.70E+08
3407,-14.175,-9.5955,-28.689,2.08E+08
3408,-18.41,-8.7853,-26.174,1.82E+08
3409,-22.19,-8.7853,-23.057,1.62E+08
3410,-25.449,-8.7853,-19.399,1.52E+08
3411,-28.112,-8.7853,-15.287,1.16E+08
3412,-30.116,-8.7853,-10.817,7.85E+07
3413,-31.415,-8.7853,-6.0925,9.54E+07
3414,-31.977,-8.7853,-1.2257,1.28E+08
3415,-31.789,-8.7853,3.6699,1.32E+08
3416,-30.856,-8.7853,8.4794,1.43E+08
3417,-29.2,-8.7853,13.09,1.30E+08
3418,-26.86,-8.7853,17.394,1.54E+08
3419,-23.89,-8.7853,21.29,1.89E+08
3420,-20.36,-8.7853,24.688,1.94E+08
3421,-16.353,-8.7853,27.506,1.89E+08
3422,-11.962,-8.7853,29.68,2.43E+08
3423,-7.2913,-8.7853,31.158,2.87E+08
3424,-2.4496,-8.7853,31.906,2.39E+08
3425,2.4496,-8.7853,31.906,1.64E+08
3426,7.2913,-8.7853,31.158,8.18E+07
3427,11.962,-8.7853,29.68,4.03E+07
3428,16.353,-8.7853,27.506,9.78E+07
3429,20.36,-8.7853,24.688,2.03E+08
3430,23.89,-8.7853,21.29,2.53E+08
3431,26.86,-8.7853,17.394,2.10E+08
3432,29.2,-8.7853,13.09,1.28E+08
3433,30.856,-8.7853,8.4794,9.74E+07
3434,31.789,-8.7853,3.6699,1.35E+08
3435,31.977,-8.7853,-1.2257,1.45E+08
3436,31.415,-8.7853,-6.0925,1.48E+08
3437,30.116,-8.7853,-10.817,1.46E+08
3438,28.112,-8.7853,-15.287,1.45E+08
3439,25.449,-8.7853,-19.399,1.51E+08
3440,23.041,-8.3165,-22.206,1.58E+08
3441,20.417,-9.9026,-24.64,1.60E+08
3442,15.978,-9.6385,-27.725,1.43E+08
3443,-9.8674,-16.319,-30.441,1.89E+08
3444,-9.6826,-21.915,-30.5,1.76E+08
3445,-9.5046,-27.458,-30.556,1.53E+08
3446,14.446,-12.821,-28.554,1.41E+08
3447,12.633,-16.284,-29.401,1.46E+08
3448,13.406,-19.734,-29.057,1.68E+08
3449,13.994,-23.854,-28.778,1.89E+08
3450,13.007,-27.998,-29.237,1.86E+08
3451,7.4781,-28.69,31.114,3.33E+08
3452,2.818,-28.629,31.876,1.76E+08
3453,-1.9542,-28.619,31.94,1.07E+08
3454,12.088,-28.629,29.629,4.90E+08
3455,16.378,-28.619,27.491,5.22E+08
3456,20.294,-28.617,24.742,4.27E+08
3457,23.755,-28.617,21.441,2.80E+08
3458,26.685,-28.617,17.661,1.97E+08
3459,29.019,-28.617,13.487,1.72E+08
3460,30.705,-28.617,9.0108,1.51E+08
3461,31.705,-28.617,4.3338,1.42E+08
3462,31.997,-28.617,-0.43998,1.58E+08
3463,31.574,-28.617,-5.204,1.72E+08
3464,30.446,-28.617,-9.8517,1.67E+08
3465,28.637,-28.617,-14.279,1.48E+08
3466,26.154,-28.442,-18.438,1.50E+08
3467,23.187,-28.28,-22.054,1.61E+08
3468,19.699,-28.464,-25.218,1.76E+08
3469,16.261,-28.255,-27.561,1.84E+08
3470,-15.866,-26.926,-27.79,1.88E+08
3471,-19.778,-29.554,-25.156,1.77E+08
3472,-24.191,-27.957,-20.948,1.38E+08
3473,-27.179,-28.35,-16.891,1.06E+08
3474,-29.123,-28.871,-13.261,9.21E+07
3475,-30.717,-28.917,-8.9713,8.10E+07
3476,-31.706,-28.667,-4.3271,9.01E+07
3477,-31.997,-28.625,0.44111,1.17E+08
3478,-31.574,-28.618,5.2042,1.48E+08
3479,-30.446,-28.617,9.8517,1.75E+08
3480,-28.637,-28.617,14.279,1.73E+08
3481,-26.189,-28.617,18.388,1.70E+08
3482,-23.156,-28.617,22.086,2.00E+08
3483,-19.606,-28.617,25.291,2.44E+08
3484,-15.617,-28.617,27.93,2.83E+08
3485,-11.28,-28.617,29.946,2.86E+08
3486,-6.6199,-28.544,31.308,2.21E+08
3487,-14.408,-14.589,-28.573,2.40E+08
3488,-19.502,-14.276,-25.371,2.12E+08
3489,-23.574,-13.759,-21.64,1.75E+08
3490,-26.767,-13.679,-17.537,1.47E+08
3491,-29.2,-13.178,-13.09,1.13E+08
3492,-30.856,-13.178,-8.4794,1.16E+08
3493,-31.789,-13.178,-3.6699,1.51E+08
3494,-31.977,-13.178,1.2257,1.78E+08
3495,-31.415,-13.178,6.0925,1.98E+08
3496,-30.116,-13.178,10.817,1.85E+08
3497,-28.112,-13.178,15.287,1.64E+08
3498,-25.449,-13.178,19.399,1.98E+08
3499,-22.19,-13.178,23.057,2.43E+08
3500,-18.41,-13.178,26.174,2.66E+08
3501,-14.199,-13.178,28.677,3.12E+08
3502,-9.6551,-13.178,30.509,3.51E+08
3503,-4.8848,-13.178,31.625,2.87E+08
3504,9.67E-12,-13.178,32,1.63E+08
3505,4.8848,-13.178,31.625,4.43E+07
3506,9.6551,-13.178,30.509,1.13E+08
3507,14.199,-13.178,28.677,1.66E+08
3508,18.41,-13.178,26.174,1.18E+08
3509,22.19,-13.178,23.057,1.33E+08
3510,25.449,-13.178,19.399,1.81E+08
3511,28.112,-13.178,15.287,1.39E+08
3512,30.116,-13.178,10.817,1.06E+08
3513,31.415,-13.178,6.0925,1.27E+08
3514,31.977,-13.178,1.2257,1.60E+08
3515,31.789,-13.178,-3.6699,1.71E+08
3516,30.856,-13.178,-8.4794,1.64E+08
3517,29.295,-13.613,-12.877,1.61E+08
3518,27.165,-13.666,-16.913,1.64E+08
3519,23.83,-13.412,-21.357,1.68E+08
3520,20.095,-15.311,-24.904,1.70E+08
3521,-14.652,-21.019,-28.448,2.15E+08
3522,16.076,-16.872,-27.669,1.64E+08
3523,17.936,-20.559,-26.501,1.83E+08
3524,10.197,-24.16,30.332,3.97E+08
3525,5.5535,-24.189,31.514,2.47E+08
3526,0.82532,-24.205,31.989,1.02E+08
3527,-4.009,-24.182,31.748,1.85E+08
3528,14.75,-24.251,28.398,4.88E+08
3529,18.923,-23.559,25.805,4.12E+08
3530,22.477,-24.232,22.777,2.73E+08
3531,25.689,-23.559,19.081,1.86E+08
3532,28.246,-23.559,15.04,1.67E+08
3533,30.172,-23.559,10.662,1.42E+08
3534,31.424,-23.559,6.0458,1.41E+08
3535,31.974,-23.559,1.2949,1.62E+08
3536,31.81,-23.559,-3.4851,1.85E+08
3537,30.935,-23.559,-8.1871,1.85E+08
3538,29.369,-23.559,-12.706,1.63E+08
3539,27.43,-23.522,-16.48,1.58E+08
3540,24.631,-23.322,-20.428,1.74E+08
3541,21.206,-23.557,-23.965,1.84E+08
3542,17.9,-24.938,-26.525,1.87E+08
3543,-20.782,-24.852,-24.333,1.87E+08
3544,-26.874,-23.219,-17.372,1.11E+08
3545,-28.827,-24.178,-13.892,9.76E+07
3546,-30.172,-25.109,-10.662,9.33E+07
3547,-31.358,-23.938,-6.3772,1.13E+08
3548,-31.945,-24.831,-1.8765,1.35E+08
3549,-31.876,-23.077,2.8101,1.80E+08
3550,-31.11,-24.79,7.4953,1.88E+08
3551,-29.825,-22.899,11.596,1.92E+08
3552,-27.147,-23.559,16.942,1.59E+08
3553,-24.674,-24.833,20.376,1.71E+08
3554,-21.754,-22.857,23.468,2.18E+08
3555,-17.486,-24.069,26.8,2.76E+08
3556,-13.222,-24.174,29.141,3.14E+08
3557,-8.7285,-24.169,30.787,2.95E+08
3558,-21.011,-17.915,-24.136,2.02E+08
3559,-24.769,-18.669,-20.26,1.55E+08
3560,-28.368,-18.901,-14.807,1.14E+08
3561,-30.147,-17.346,-10.731,1.13E+08
3562,-31.415,-18.368,-6.0883,1.44E+08
3563,-31.99,-17.778,-0.80642,1.91E+08
3564,-31.741,-17.765,4.0613,2.22E+08
3565,-30.757,-17.752,8.8315,2.24E+08
3566,-29.172,-17.685,13.152,1.84E+08
3567,-26.844,-18.382,17.418,1.66E+08
3568,-23.714,-17.75,21.486,2.15E+08
3569,-20.355,-17.708,24.692,2.68E+08
3570,-16.609,-17.165,27.352,3.10E+08
3571,-12.389,-17.143,29.504,3.53E+08
3572,-7.8025,-17.123,31.034,3.40E+08
3573,-2.9952,-17.139,31.86,2.12E+08
3574,1.8678,-17.178,31.945,6.20E+07
3575,6.6722,-17.131,31.297,1.45E+08
3576,11.343,-17.097,29.922,2.55E+08
3577,15.781,-17.1,27.838,3.04E+08
3578,19.87,-17.085,25.084,1.87E+08
3579,23.4,-17.205,21.828,1.27E+08
3580,26.607,-18.595,17.779,1.44E+08
3581,29.294,-18.646,12.88,1.17E+08
3582,30.885,-18.646,8.3753,1.21E+08
3583,31.787,-18.647,3.6895,1.49E+08
3584,31.982,-18.635,-1.077,1.77E+08
3585,31.461,-18.642,-5.8507,1.84E+08
3586,30.236,-18.634,-10.479,1.66E+08
3587,28.335,-18.63,-14.871,1.64E+08
3588,26.237,-18.643,-18.32,1.72E+08
3589,22.9,-18.989,-22.352,1.80E+08
3590,-17.348,-17.948,-26.89,2.38E+08
3591,-18.367,-21.759,-26.204,2.19E+08
3592,-23.901,-23.151,-21.278,1.48E+08
3593,12.944,-20.623,29.265,3.95E+08
3594,8.3337,-20.703,30.896,2.76E+08
3595,3.6939,-20.814,31.786,1.28E+08
3596,-1.15,-20.841,31.979,1.20E+08
3597,-6.1059,-20.691,31.412,2.77E+08
3598,17.325,-20.589,26.904,3.83E+08
3599,21.244,-20.581,23.931,2.28E+08
3600,23.992,-20.834,21.175,1.64E+08
3601,-30.293,-21.367,-10.313,1.03E+08
3602,-18.426,-20.488,26.163,2.84E+08
3603,-14.982,-20.732,28.276,3.25E+08
3604,-10.637,-20.784,30.18,3.46E+08
3605,-73.611,-5.6781,-69.311,6.19E+05
3606,-73.057,-3.2604,-69.655,1.10E+06
3607,-64.395,-6.2519,-66.861,2.07E+06
3608,-64.201,-7.1561,-61.956,2.86E+06
3609,-67.431,-7.2411,-58.502,2.01E+06
3610,-71.357,-7.6686,-58.071,2.15E+06
3611,-75.869,-7.2083,-66.439,1.89E+06
3612,-73.151,-4.9651,-58.76,1.52E+06
3613,-69.206,-4.2954,-57.987,2.61E+06
3614,-65.071,-4.2954,-60.392,1.77E+06
3615,-63.807,-4.0689,-64.629,2.63E+06
3616,-75.6,-4.8365,-61.324,2.76E+06
3617,-66.476,-6.2751,-69.314,4.35E+05
3618,36.287,-10.201,-30.508,4.07E+07
3619,36.179,-7.5025,-32.889,2.07E+08
3620,36.387,-9.7958,-35.492,3.97E+07
3621,32.815,-10.447,-30.54,4.37E+07
3622,32.978,-7.8524,-31.72,1.96E+08
3623,33.312,-8.5477,-35.035,1.06E+08
3624,36.287,-10.201,-50.508,1.50E+07
3625,36.204,-7.5006,-53.056,3.28E+07
3626,36.387,-9.7958,-55.492,1.07E+07
3627,32.815,-10.447,-50.54,1.79E+07
3628,32.978,-7.8524,-51.72,5.70E+07
3629,33.312,-8.5477,-55.035,2.84E+07
3630,-62.632,-5.6781,79.372,3.07E+07
3631,-63.023,-3.2604,78.85,4.70E+07
3632,-52.406,-7.208,72.268,6.31E+07
3633,-51.631,-7.6644,76.145,9.34E+07
3634,-52.16,-4.9645,77.993,8.23E+07
3635,-51.735,-4.2954,73.997,8.05E+07
3636,-60.993,-6.2519,69.977,8.47E+07
3637,-56.126,-7.1941,69.356,6.87E+07
3638,-59.561,-7.3172,81.375,3.00E+07
3639,-54.494,-4.8372,80.652,4.13E+07
3640,-54.491,-4.2954,70.087,4.51E+07
3641,-58.821,-4.0704,69.197,7.71E+07
3642,-63.257,-6.2751,72.264,5.63E+07
3643,-6.8719,31.61,-49.138,1.84E+07
3644,-5.9465,35.613,-50.562,7.04E+06
3645,-7.0478,37.061,-54.693,2.45E+06
3646,-6.4397,34.566,-58.461,9.11E+06
3647,-7.0116,30.123,-58.709,2.90E+07
3648,-12.488,32.033,-59.114,7.59E+06
3649,-13.585,35.693,-57.585,6.07E+06
3650,-12.625,37.053,-53.469,2.59E+06
3651,-13.934,34.952,-50.011,7.71E+06
3652,-12.363,31.095,-49.215,1.97E+07
3653,-8.8963,28.388,-50.759,5.46E+07
3654,-12.027,27.977,-51.278,3.28E+07
3655,-10.026,35.164,-50.167,6.19E+06
3656,-10.319,35.308,-57.945,4.39E+06
3657,7.0189,33.123,-57.98,1.93E+07
3658,5.6449,35.721,-55.802,8.63E+06
3659,6.9336,35.557,-52.111,1.06E+07
3660,5.9648,32.881,-50.192,1.33E+07
3661,13.156,32.818,-50.18,1.75E+07
3662,12.481,35.956,-53.072,7.62E+06
3663,13.513,35.219,-56.611,1.18E+07
3664,12.481,31.847,-58.106,1.13E+07
3665,8.1661,29.465,-57.129,3.09E+07
3666,11.517,28.952,-56.589,2.67E+07
3667,8.7673,30.143,-50.622,3.58E+07
3668,9.9979,35.537,-56.151,7.77E+06
3669,6.0502,41.196,122,3.83E+06
3670,1.2213,41.154,121.95,4.33E+06
3671,-3.1121,41.154,121.95,4.48E+06
3672,-9.6275,41.441,122.27,5.13E+06
3673,-7.5077,44.628,111.9,2.26E+07
3674,-7.5077,49.342,112.72,3.39E+07
3675,-7.5077,47.372,124.1,4.87E+06
3676,8.1663,44.628,124.1,2.97E+06
3677,7.9102,49.296,123.31,4.30E+06
3678,7.5077,47.372,111.9,6.26E+07
3679,7.9746,42.761,112.65,4.91E+07
3680,-7.5077,52.098,116.63,1.81E+07
3681,-7.5077,51.282,121.34,8.57E+06
3682,7.5077,52.098,119.37,1.08E+07
3683,7.5077,51.282,114.66,2.99E+07
3684,4.2564,40.575,114.9,1.70E+07
3685,-1.2213,41.154,114.05,9.63E+06
3686,-5.5546,41.154,114.05,3.22E+06
3687,2.7748,44.573,124.08,3.52E+06
3688,-1.9258,45.066,124.18,3.71E+06
3689,-2.3205,47.774,112.01,4.17E+07
3690,-2.2658,51.394,114.84,2.85E+07
3691,-2.7147,49.981,122.82,5.85E+06
3692,2.4813,51.344,121.24,7.62E+06
3693,2.4033,44.896,111.85,4.57E+07
3694,2.5867,49.636,112.92,4.40E+07
3695,-2.2707,52.21,118.71,1.32E+07
3696,2.5867,52.166,116.98,2.04E+07
3697,-2.7923,43.712,112.18,2.36E+07
3698,0.36169,48.35,123.79,4.20E+06
3699,6.0502,33.763,66.999,5.00E+08
3700,1.2213,33.721,66.947,2.80E+08
3701,-3.1121,33.721,66.947,2.62E+08
3702,-6.2743,33.247,66.28,4.24E+08
3703,-9.656,34.014,67.282,5.43E+08
3704,-7.5298,36.737,57.024,4.98E+08
3705,-7.5077,41.909,57.718,2.35E+08
3706,-7.5077,44.665,61.628,8.30E+07
3707,-7.5077,43.849,66.342,4.96E+07
3708,7.5077,44.665,64.372,5.41E+07
3709,7.5077,43.849,59.658,6.89E+07
3710,7.5077,39.939,56.902,2.11E+08
3711,7.9746,35.328,57.655,4.93E+08
3712,-7.9351,40.086,69.063,1.44E+08
3713,8.1663,37.195,69.098,4.06E+08
3714,7.9266,41.84,68.325,1.74E+08
3715,4.2564,33.142,59.896,4.23E+08
3716,-1.2213,33.721,59.053,3.43E+08
3717,-5.5546,33.721,59.053,5.22E+08
3718,2.8706,37.102,69.076,1.93E+08
3719,-1.4137,37.332,69.127,5.96E+07
3720,-4.9764,36.656,68.951,1.66E+08
3721,-2.3205,40.341,57.007,1.32E+08
3722,-2.2491,44.011,59.93,7.21E+07
3723,-2.1944,44.636,64.492,5.60E+07
3724,-2.6354,42.1,68.156,3.76E+07
3725,2.5867,44.733,61.976,4.94E+07
3726,2.6711,43.777,66.452,6.21E+07
3727,2.5867,42.203,57.916,4.29E+07
3728,2.4033,37.463,56.848,1.04E+08
3729,4.3707,40.251,69.019,1.43E+08
3730,-2.7923,36.279,57.184,2.72E+08
3731,103.12,48.904,15.526,1.39E+07
3732,103.57,49.413,10.853,9.04E+06
3733,102.82,48.502,7.9854,2.58E+07
3734,105.09,39.471,16.148,3.61E+07
3735,109.37,38.902,16.008,2.85E+07
3736,113.28,41.658,16.008,3.07E+07
3737,114.1,46.372,16.008,2.21E+07
3738,111.34,50.282,16.008,1.03E+07
3739,106.28,51.009,17.249,1.67E+07
3740,109.42,51.086,10.922,2.00E+07
3741,113.3,48.313,10.487,6.96E+06
3742,114.16,43.962,10.693,3.47E+07
3743,111.64,39.917,10.716,2.64E+07
3744,107.38,38.781,10.737,4.06E+07
3745,102.58,41.896,14.554,3.04E+07
3746,103.86,40.314,11.511,2.82E+07
3747,-83.099,-6.2515,-60.752,8.51E+05
3748,-83.504,-6.2515,-65.19,6.84E+05
3749,-82.442,-6.2515,-69.517,2.27E+05
3750,-80.029,-6.2515,-73.264,4.03E+05
3751,-76.528,-6.2515,-76.021,9.05E+05
3752,-72.32,-6.2515,-77.487,1.12E+06
3753,-67.863,-6.2515,-77.504,1.05E+06
3754,-17.561,34.135,-44.715,2.61E+06
3755,-17.561,29.742,-44.254,1.63E+07
3756,-17.561,25.35,-43.792,4.55E+07
3757,-17.561,20.957,-43.33,1.02E+08
3758,-53.278,-6.2515,88.077,3.75E+07
3759,-57.664,-6.2515,88.868,3.26E+07
3760,-62.068,-6.2515,88.187,1.91E+07
3761,-66.01,-6.2515,86.11,1.32E+06
3762,-69.062,-6.2515,82.862,1.81E+07
3763,-70.889,-6.2515,78.798,3.19E+07
3764,-71.295,-6.2515,74.36,3.86E+07
3765,9.9176,39.609,-64.517,2.23E+06
3766,17.512,18.856,-62.382,8.85E+06
3767,17.512,27.641,-63.306,1.93E+07
3768,-9.5824,39.609,-64.517,1.93E+06
3769,-6.0005,51.661,59.716,4.77E+07
3770,-6.4594,49.918,55.692,7.20E+07
3771,-6.5628,46.686,52.214,1.02E+08
3772,8.0529,47.797,53.148,8.69E+07
3773,7.9854,50.578,56.836,6.30E+07
3774,8.4179,51.967,61.358,4.96E+07
3775,-2.8235,44.821,51.036,1.03E+08
3776,0.86611,45.183,51.232,9.49E+07
3777,4.5926,45.175,51.228,9.62E+07
3778,-3.5137,52.048,63.716,2.02E+07
3779,0.67118,52.054,63.589,6.57E+06
3780,4.7421,52.041,63.838,3.03E+07
3781,-1.3661,50.704,57.089,4.95E+07
3782,-1.8271,48.208,53.55,7.69E+07
3783,3.3078,49.13,54.594,6.80E+07
3784,3.2007,51.572,59.379,3.62E+07
3785,-1.3239,51.807,60.361,2.77E+07
3786,0.33609,-14.286,-44.496,2.06E+08
3787,-5.9677,35.74,126.77,9.63E+05
3788,-6.0105,40.178,130.18,2.51E+05
3789,-6.895,44.485,131.41,4.57E+05
3790,-6.9834,49.196,131.12,9.65E+05
3791,-6.7216,53.645,129.13,1.51E+06
3792,-6.5587,57.121,125.65,2.12E+06
3793,-6.3938,59.127,121.15,3.20E+06
3794,-6.5502,59.345,115.96,6.86E+06
3795,7.6493,59.473,117.15,8.64E+06
3796,7.5105,58.671,122.66,4.71E+06
3797,8.2077,56.499,126.49,2.74E+06
3798,8.2499,52.948,129.57,1.60E+06
3799,8.6084,48.731,131.22,8.76E+05
3800,8.0954,44.064,131.36,2.89E+05
3801,7.8301,38.876,129.47,6.72E+05
3802,8.1269,34.978,125.8,2.07E+06
3803,-2.7881,58.787,113.67,1.39E+07
3804,1.0306,58.777,113.64,1.51E+07
3805,4.715,58.691,113.4,1.61E+07
3806,-3.1892,33.742,123.66,2.57E+06
3807,0.59475,33.805,123.79,2.83E+06
3808,4.5926,33.614,123.37,3.57E+06
3809,-1.2079,38.971,129.53,5.12E+05
3810,-1.5306,43.963,131.35,3.40E+05
3811,-3.2784,47.374,131.43,7.35E+05
3812,-1.7181,51.548,130.31,1.24E+06
3813,-1.6189,55.984,127.09,2.24E+06
3814,-1.434,58.394,123.35,3.95E+06
3815,-1.3841,59.5,118,8.15E+06
3816,3.1805,59.084,121.32,5.69E+06
3817,3.216,57.341,125.32,3.28E+06
3818,3.3415,54.578,128.42,2.01E+06
3819,3.5884,50.712,130.65,1.15E+06
3820,3.6556,46.327,131.5,4.80E+05
3821,3.2942,41.34,130.67,2.47E+05
3822,2.9327,36.539,127.63,1.28E+06
3823,3.2664,59.456,116.91,1.01E+07
3824,-1.4911,35.673,126.69,1.47E+06
3825,-0.48239,18.291,77.706,1.92E+08
3826,-0.14002,11.632,71.853,4.11E+08
3827,-0.3316,3.8652,67.983,4.33E+08
3828,91.367,45.298,16.023,2.37E+07
3829,91.265,45.102,12.499,1.91E+07
3830,109.5,28.427,10.3,5.14E+07
3831,109.5,28.427,16.7,3.93E+07
3832,94.014,52.771,15.479,5.13E+06
3833,93.448,51.651,10.68,5.60E+06
3834,116.64,31.534,12.174,3.60E+06
3835,115.72,30.984,16.394,5.50E+06
3836,97.363,56.952,16.636,2.85E+06
3837,101.56,59.648,15.942,8.80E+06
3838,106.25,60.904,15.899,1.22E+07
3839,111.1,60.697,15.893,1.26E+07
3840,115.67,59.044,15.892,1.07E+07
3841,119.53,56.097,15.892,6.12E+06
3842,122.33,52.122,15.905,1.03E+06
3843,123.82,42.59,15.936,8.13E+06
3844,122.11,37.457,15.437,8.12E+06
3845,118.79,33.189,16.811,3.48E+06
3846,119.1,33.474,9.1862,2.64E+06
3847,121.44,36.322,9.9476,7.22E+06
3848,123.26,40.193,10.272,8.92E+06
3849,123.99,44.433,10.532,7.81E+06
3850,123.46,49.138,10.597,3.94E+06
3851,121.49,53.608,10.568,2.34E+06
3852,118.28,57.264,10.559,7.30E+06
3853,114.12,59.782,10.557,1.12E+07
3854,109.41,60.938,10.557,1.27E+07
3855,104.56,60.626,10.558,1.09E+07
3856,99.956,58.831,10.405,7.11E+06
3857,95.994,55.577,11.043,2.44E+06
3858,123.81,47.476,15.847,4.77E+06
3859,-10.561,31.039,104.42,1.83E+07
3860,-11,5.582,60.325,1.16E+08
3861,-11,42.157,90.463,5.99E+07
3862,-11,11.489,62.116,2.45E+08
3863,-11,-6.0114,63.834,1.40E+08
3864,-11,13.392,57.093,2.64E+08
3865,-11,16.78,70.973,3.65E+08
3866,-11,31.018,84.815,1.51E+08
3867,-11,40.227,97.189,5.16E+07
3868,-11,9.0663,53.432,8.85E+07
3869,-11,45.901,94.293,4.69E+07
3870,-11,1.5602,66.264,8.71E+07
3871,-11,18.29,52.883,4.06E+08
3872,-11,45.568,86.676,4.39E+07
3873,-11,17.397,63.908,4.30E+08
3874,-11,6.47E-02,56.136,2.81E+08
3875,-11,40.774,84.448,7.25E+07
3876,-11,34.188,89.758,9.66E+07
3877,-11,-9.4463,59.05,1.99E+08
3878,-11,11.569,68.734,2.74E+08
3879,-11,19.042,58.068,5.11E+08
3880,-11,35.304,95.615,6.39E+07
3881,-11,6.8411,66.688,1.54E+08
3882,-11,46.09,81.641,2.42E+07
3883,-11,-4.8956,58.067,2.47E+08
3884,-11,-1.076,61.8,1.47E+08
3885,-11,21.762,73.96,3.56E+08
3886,-11,28.075,80.038,2.24E+08
3887,-11,36.816,100.09,4.71E+07
3888,-11,4.5486,54.806,1.39E+08
3889,-11,13.397,51.118,2.04E+08
3890,-11,48.004,98.892,3.84E+07
3891,-11,23.334,52.784,6.17E+08
3892,-11,9.1252,58.087,1.42E+08
3893,-11,36.026,83.718,1.17E+08
3894,-11,-14.017,57.772,1.62E+08
3895,-11,9.147,48.666,3.55E+07
3896,-11,-3.024,66.884,9.21E+07
3897,-11,47.069,90.039,4.40E+07
3898,-11,38.291,87.982,8.31E+07
3899,-11,23.612,77.792,2.91E+08
3900,-11,-12.615,61.395,1.40E+08
3901,-11,21.277,69.42,4.61E+08
3902,-11,32.584,80.614,1.71E+08
3903,-10.561,14.653,45.522,2.22E+08
3904,-10.521,18.955,46.241,3.54E+08
3905,-10.561,24.366,47.234,4.78E+08
3906,39.752,-19.659,-46.149,1.17E+07
3907,39.782,-19.623,-20.393,1.55E+08
3908,39.707,-19.707,-25.676,9.99E+07
3909,39.707,-19.707,-30.545,5.41E+07
3910,39.707,-19.707,-35.413,1.87E+07
3911,39.717,-19.697,-40.651,5.38E+06
3912,39.535,-3.1872,-60.305,2.31E+06
3913,39.808,-7.6638,-59.577,2.36E+06
3914,39.865,-0.49752,-57.293,6.36E+06
3915,39.619,-0.21497,-3.2945,1.60E+08
3916,39.584,-0.18843,-10.798,2.61E+08
3917,39.707,-0.29308,-17.104,2.70E+08
3918,39.707,-0.29308,-22.078,2.55E+08
3919,39.707,-0.29308,-27.051,2.34E+08
3920,39.707,-0.29308,-32.025,1.87E+08
3921,39.707,-0.29308,-36.999,1.56E+08
3922,39.707,-0.29308,-41.973,1.12E+08
3923,39.707,-0.29308,-46.946,6.15E+07
3924,39.744,-0.33165,-52.19,1.74E+07
3925,37.121,-0.34319,-60.439,4.01E+06
3926,25.057,-0.17805,-60.255,9.59E+07
3927,33.077,-0.33101,-60.428,4.15E+06
3928,29.077,-0.33101,-60.428,2.49E+07
3929,79.936,32.281,16.833,5.63E+07
3930,73.362,25.107,16.833,7.33E+07
3931,66.437,17.549,16.085,9.16E+07
3932,83.273,35.922,15.065,4.20E+07
3933,63.895,14.775,11.764,8.28E+07
3934,69.08,20.433,11.167,6.79E+07
3935,75.599,27.548,11.167,5.23E+07
3936,62.358,13.098,17.115,1.09E+08
3937,85.147,37.968,10.611,2.79E+07
3938,80.789,33.211,10.815,4.03E+07
3939,86.984,39.972,14.233,2.99E+07
3940,60.572,11.149,12.782,9.76E+07
3941,70.075,21.52,16.833,8.32E+07
3942,76.584,28.622,17.306,6.52E+07
3943,72.339,23.991,11.167,6.02E+07
3944,78.245,30.436,13.647,5.30E+07
3945,85.414,38.259,18.056,4.02E+07
3946,82.517,35.098,18.917,5.64E+07
3947,59.677,10.173,16.262,1.19E+08
3948,66.552,17.675,10.434,7.13E+07
3949,60.86,11.463,8.6938,7.86E+07
3950,9.75,30.607,-43.903,3.04E+07
3951,-9.75,30.607,-43.903,2.44E+07
3952,-14.491,8.057,-41.532,1.41E+08
3953,14.498,8.0962,-41.537,2.75E+08
3954,11.665,26.049,-43.423,9.86E+07
3955,-11.665,26.049,-43.423,8.03E+07
3956,-7.865,35.377,-44.404,3.24E+06
3957,7.865,35.377,-44.404,4.06E+06
3958,8.6755,6.7258,-41.393,2.59E+08
3959,-8.6673,6.7258,-41.393,1.14E+08
3960,-12.553,16.621,-42.433,2.40E+08
3961,12.553,16.621,-42.433,3.17E+08
3962,12.563,33.708,-44.229,8.72E+06
3963,-12.563,33.708,-44.229,5.60E+06
3964,12.129,21.098,-42.903,2.18E+08
3965,-12.129,21.098,-42.903,1.70E+08
3966,-6.7578,27.788,-43.606,8.08E+07
3967,6.7578,27.788,-43.606,8.96E+07
3968,-12.614,12.632,-42.013,2.28E+08
3969,-13.295,29.584,-43.795,2.88E+07
3970,13.295,29.584,-43.795,3.67E+07
3971,2.64E-02,5.626,-41.277,1.18E+08
3972,10.511,10.119,-41.749,3.80E+08
3973,4.4726,5.626,-41.277,2.42E+08
3974,-4.4644,5.626,-41.277,8.26E+07
3975,-6.1192,31.351,-43.981,2.29E+07
3976,6.1192,31.351,-43.981,2.56E+07
3977,7.4847,2.6983,-61.079,5.24E+08
3978,-6.6721,2.75,-61.085,4.39E+08
3979,-1.4006,1.2319,-60.925,4.81E+08
3980,12.068,-3.1323,-60.467,3.17E+08
3981,-9.9457,-2.9741,-60.483,2.82E+08
3982,9.75,28.516,-63.793,1.53E+07
3983,-9.75,28.516,-63.793,1.52E+07
3984,-15.1,6.1386,-61.441,1.99E+08
3985,12.787,8.5943,-61.699,2.77E+08
3986,1.883,-4.0112,-60.374,3.75E+08
3987,13.242,2.7969,-61.09,4.13E+08
3988,-2.5571,-4.6516,-60.307,3.45E+08
3989,17.089,-4.632,-60.309,2.32E+08
3990,11.665,23.958,-63.314,3.55E+07
3991,-11.665,23.958,-63.314,3.95E+07
3992,-7.865,33.286,-64.294,1.92E+06
3993,7.865,33.286,-64.294,3.37E+06
3994,6.521,-3.6446,-60.413,3.55E+08
3995,3.2099,1.1967,-60.922,5.07E+08
3996,-11.705,1.6749,-60.972,3.07E+08
3997,12.553,14.531,-62.323,8.06E+07
3998,-12.645,13.798,-62.246,7.56E+07
3999,21.333,-5.1794,-60.251,1.31E+08
4000,32.583,-5.1794,-60.251,1.89E+07
4001,12.562,31.618,-64.119,5.18E+06
4002,-12.562,31.618,-64.119,4.58E+06
4003,-14.857,-1.9846,-60.587,2.19E+08
4004,12.129,19.007,-62.794,5.68E+07
4005,-12.649,18.98,-62.791,6.54E+07
4006,26.461,-4.8384,-60.287,5.32E+07
4007,-10.868,8.9001,-61.731,3.03E+08
4008,15.969,-0.5295,-60.74,3.57E+08
4009,-6.7578,25.698,-63.497,3.68E+07
4010,6.7578,25.698,-63.497,3.72E+07
4011,-15.78,10.414,-61.89,1.53E+08
4012,-15.639,1.7245,-60.977,2.20E+08
4013,-13.295,27.494,-63.686,1.63E+07
4014,13.295,27.494,-63.686,1.88E+07
4015,-14.512,-5.6195,-60.205,1.78E+08
4016,-6.1192,29.261,-63.871,1.20E+07
4017,6.1192,29.261,-63.871,1.44E+07
4018,-9.6556,5.5602,-61.38,3.67E+08
4019,-36.377,-12.5,48.358,1.94E+08
4020,-38.236,-12.5,43.125,2.07E+08
4021,-45.592,-12.5,53.8,1.39E+08
4022,-30.61,-12.5,44.323,2.63E+08
4023,-33.352,-12.5,53.001,1.86E+08
4024,-37.128,-12.5,37.228,2.27E+08
4025,-26.599,-12.5,49.614,2.47E+08
4026,-37.001,-12.5,59.067,1.51E+08
4027,-25.414,-12.5,43.99,3.32E+08
4028,-41.97,-12.5,48.126,1.74E+08
4029,-38.695,-12.5,53.714,1.59E+08
4030,-48.343,-12.5,48.13,1.63E+08
4031,-39.3,-12.5,32.147,2.00E+08
4032,-20.93,-12.5,47.838,3.57E+08
4033,-31.807,-12.5,58.277,1.82E+08
4034,-45.794,-12.5,43.556,1.84E+08
4035,-28.889,-12.5,40.013,3.15E+08
4036,-42.302,-12.5,38.982,1.99E+08
4037,-51.65,-12.5,52.119,1.41E+08
4038,-34.556,-12.5,32.331,2.54E+08
4039,-34.384,-12.5,62.831,1.59E+08
4040,-31.17,-12.5,48.737,2.22E+08
4041,-31.456,-12.5,35.786,2.94E+08
4042,-41.678,-12.5,58.182,1.33E+08
4043,-17.011,-12.5,43.276,4.93E+08
4044,-28.123,-12.5,54.031,2.08E+08
4045,-37.073,-12.5,28.286,2.06E+08
4046,-33.873,-12.5,41.034,2.48E+08
4047,-23.525,-12.5,52.147,2.38E+08
4048,-36.606,-12.5,65.983,1.41E+08
4049,-21.55,-12.5,41.86,4.18E+08
4050,-42.43,-12.5,35.51,1.99E+08
4051,-25,-12.5,39.807,3.80E+08
4052,-15.718,-12.5,47.514,4.77E+08
4053,-34.39,-12.5,44.961,2.26E+08
4054,-38.825,-12.5,62.1,1.34E+08
4055,-3.7186,52.249,85.022,1.37E+07
4056,-3.1667,53.629,95.507,5.83E+07
4057,3.1667,51.834,81.873,3.62E+07
4058,2.2049,52.499,86.922,3.31E+07
4059,2.6247,53.827,97.007,6.43E+07
4060,-5.2574,51.554,79.742,2.84E+07
4061,-1.5833,54.27,100.37,6.67E+07
4062,-2.8199,52.951,90.356,4.22E+07
4063,1.854,51.177,76.878,5.78E+07
4064,0.60138,53.206,92.29,5.20E+07
4065,4.75,53.11,91.56,4.62E+07
4066,2.1797,54.44,101.66,6.75E+07
4067,5.5417,54.304,100.63,6.20E+07
4068,5.9324,51.253,77.455,6.11E+07
4069,-5.5417,54.233,100.09,5.68E+07
4070,-0.89008,51.647,80.451,2.92E+07
4071,-6.2706,53.215,92.363,4.03E+07
4072,-2.4466,51.104,76.325,5.43E+07
4073,-6.2731,51.086,76.192,5.04E+07
4074,-6.3666,52.805,89.242,3.14E+07
4075,1.9382,18.283,45.715,3.92E+08
4076,0.85935,30.735,47.911,8.78E+07
4077,-1.7341,14.393,45.029,4.18E+08
4078,-4.409,23.563,46.646,3.26E+08
4079,5.6797,22.994,46.546,2.99E+08
4080,7.8715,12.651,44.722,2.82E+08
4081,-4.6264,32.754,48.267,1.71E+08
4082,5.9703,32.677,48.253,1.22E+08
4083,-0.42032,35.823,48.808,8.66E+07
4084,0.45677,22.38,46.438,3.37E+08
4085,7.0595,17.642,45.602,3.06E+08
4086,6.0136,28.206,47.465,1.82E+08
4087,2.9384,13.252,44.828,4.17E+08
4088,-4.3728,28.624,47.538,2.21E+08
4089,-2.7711,19.038,45.848,3.79E+08
4090,4.5851,36.794,48.979,1.16E+08
4091,-5.8265,37.21,49.052,1.97E+08
4092,-5.7474,15.656,45.252,3.36E+08
4093,0.93915,26.788,47.215,2.21E+08
4094,-5.4088,11.96,44.6,3.52E+08
4095,-6.3729,19.659,45.958,3.42E+08
4096,8.2981,36.715,48.965,1.92E+08
4097,-15.662,-20,-44.421,7.32E+07
4098,-18.083,-20,-39.28,6.34E+07
4099,-19.589,-20,-40.555,3.70E+07
4100,-44.731,-12.5,-41.027,1.05E+07
4101,-39.731,-12.5,-37.483,1.68E+07
4102,-42.343,-12.5,-32.515,1.85E+07
4103,-48.963,-12.5,-43.76,1.19E+07
4104,-43.937,-12.5,-52.569,1.06E+07
4105,-40.029,-12.5,-46.845,1.30E+07
4106,-49.352,-12.5,-35.86,1.01E+07
4107,-33.032,-12.5,-41.898,4.24E+07
4108,-55.975,-12.5,-39.636,1.14E+07
4109,-39.767,-12.5,-27.805,5.65E+07
4110,-33.65,-12.5,-35.837,7.34E+07
4111,-46.027,-12.5,-28.325,9.09E+06
4112,-49.984,-12.5,-51.773,8.00E+06
4113,-46.983,-12.5,-48.516,1.12E+07
4114,-54.205,-12.5,-45.372,9.90E+06
4115,-29.466,-12.5,-37.708,1.20E+08
4116,-36.849,-12.5,-31.611,6.23E+07
4117,-42.507,-12.5,-23.901,4.74E+07
4118,-59.338,-12.5,-42.827,8.24E+06
4119,-35.203,-12.5,-46.664,1.37E+07
4120,-50.783,-12.5,-31.329,1.15E+07
4121,-46.823,-12.5,-32.917,5.28E+06
4122,-45.09,-12.5,-36.623,6.84E+06
4123,-47.694,-12.5,-55.954,6.95E+06
4124,-53.461,-12.5,-35.204,1.31E+07
4125,-39.003,-12.5,-50.508,1.31E+07
4126,-42.778,-12.5,-48.74,1.25E+07
4127,-43.883,-12.5,-45.15,1.20E+07
4128,-28.227,-12.5,-42.238,1.16E+08
4129,-38.97,-12.5,-42.733,1.17E+07
4130,-51.507,-12.5,-48.249,9.29E+06
4131,-47.928,-12.5,-39.475,1.08E+07
4132,-51.506,-12.5,-40.106,1.19E+07
4133,-30.595,-12.5,-44.744,4.56E+07
4134,-33.241,-7,68.233,4.78E+07
4135,-26.952,-7,61.248,6.61E+07
4136,-21.72,-6.9485,55.437,6.99E+07
4137,-30.097,-7,64.74,5.77E+07
4138,-42.863,-6.25,78.919,4.30E+07
4139,-39.067,-6.3307,74.703,5.02E+07
4140,-36.186,-5.1249,71.503,3.52E+07
4141,-45.331,-6.25,81.66,3.74E+07
4142,-24.577,-7,58.61,7.31E+07
4143,-2.3204,31.43,110.76,1.73E+07
4144,1.2161,30.531,103.93,3.14E+07
4145,4.9644,31.573,111.84,1.50E+07
4146,-4.3542,30.479,103.53,2.49E+07
4147,-5.6654,31.918,114.46,1.13E+07
4148,0.67045,31.98,114.94,1.24E+07
4149,6.2741,32.129,116.07,1.25E+07
4150,5.7526,30.517,103.83,3.87E+07
4151,4.9883,31,107.49,2.50E+07
4152,1.0954,31.218,109.14,2.10E+07
4153,-5.6926,31.128,108.46,1.92E+07
4154,-2.0097,30.907,106.79,2.41E+07
4155,11,42.135,90.465,8.98E+07
4156,11,12.494,64.144,3.21E+08
4157,11,1.7798,59.643,5.08E+07
4158,11,-3.9297,63.548,8.13E+07
4159,11,30.614,84.634,2.16E+08
4160,11,40.227,97.189,9.85E+07
4161,11,45.901,94.293,7.63E+07
4162,11,19.628,68.932,4.88E+08
4163,11,7.1556,67.529,2.12E+08
4164,11,45.568,86.676,5.30E+07
4165,11,40.686,84.461,9.18E+07
4166,11,34.146,89.755,1.45E+08
4167,11,16.049,58.645,3.83E+08
4168,11,1.566,65.924,6.12E+07
4169,11,-7.5727,59.091,1.52E+08
4170,11,6.75,62.273,1.44E+08
4171,11,17.892,64.288,4.91E+08
4172,11,35.841,94.17,1.19E+08
4173,11,12.064,69.28,3.52E+08
4174,11,45.446,81.813,3.54E+07
4175,11,-3.2425,58.707,1.27E+08
4176,11,36.816,100.09,9.78E+07
4177,11,27.925,79.739,2.97E+08
4178,11,-11.943,60.506,1.36E+08
4179,11,48.004,98.892,7.08E+07
4180,11,20.722,56.582,5.55E+08
4181,11,10.52,58.403,2.01E+08
4182,11,23.716,76.067,4.00E+08
4183,11,-8.6592,64.002,1.06E+08
4184,11,35.91,83.714,1.52E+08
4185,11,15.991,71.521,4.44E+08
4186,11,6.0325,57.8,7.61E+07
4187,11,19.88,60.763,5.77E+08
4188,11,19.986,73.702,4.56E+08
4189,11,15.645,67.649,4.23E+08
4190,11,38.239,87.982,1.17E+08
4191,11,47.07,90.038,5.79E+07
4192,11,32.367,80.506,2.12E+08
4193,11,-15.597,58.174,1.36E+08
4194,-64.797,-6.25,-38.763,7.30E+06
4195,-58.048,-6.25,-31.526,1.70E+07
4196,-51.725,-6.5528,-24.745,2.30E+07
4197,-54.674,-6.25,-27.907,2.20E+07
4198,-61.423,-6.25,-35.144,1.14E+07
4199,-74.883,-6.25,-49.578,2.34E+06
4200,-71.528,-6.25,-45.981,2.91E+06
4201,-67.617,-7.4697,-41.787,5.07E+06
4202,-48.778,-6.2493,-21.584,1.95E+07
4203,-77.399,-6.25,-52.276,1.52E+06
4204,-57.082,-6.25,49.426,3.99E+07
4205,-51.692,-6.25,41.127,5.02E+07
4206,-46.303,-6.25,32.827,3.05E+07
4207,-48.997,-6.25,36.977,4.58E+07
4208,-54.387,-6.25,45.276,4.88E+07
4209,-64.873,-5.9372,61.424,4.49E+07
4210,-62.457,-6.25,57.703,5.17E+07
4211,-59.707,-5.7878,53.468,2.71E+07
4212,-44.289,-6.2493,29.727,1.82E+07
4213,-67.358,-5.9243,65.25,3.88E+07
4214,-44.679,-5.5,-61.497,3.73E+06
4215,-31.324,-5.2196,-51.064,3.48E+07
4216,-37.303,-5.5,-55.735,1.59E+07
4217,-40.991,-5.5,-58.616,8.36E+06
4218,-55.916,-6.25,-70.277,1.17E+06
4219,-51.448,-6.1681,-66.786,1.06E+06
4220,-28.684,-2.8701,-49.001,5.18E+07
4221,-48.142,-7.3793,-64.203,1.43E+06
4222,-28.217,-7.0431,-48.636,3.71E+07
4223,-58.823,-6.25,-72.548,7.60E+05
4224,-34.435,-6.2459,-53.494,2.34E+07
4225,58.481,-7.4252,22.5,2.18E+07
4226,78.629,14.01,22.5,3.28E+07
4227,84.663,23.111,22.5,3.21E+07
4228,52.474,-9.2922,22.5,2.51E+07
4229,72.818,7.4905,22.5,3.70E+07
4230,87.545,17.344,22.5,2.10E+07
4231,65.298,-8.7297,22.5,2.74E+07
4232,52.387,-16.661,22.5,5.48E+07
4233,62.899,-2.668,22.5,2.95E+07
4234,76.455,20.295,22.5,6.01E+07
4235,59.905,-15.266,22.5,4.74E+07
4236,56.306,-1.0898,22.5,7.93E+07
4237,69.134,-5.501,22.5,2.52E+07
4238,69.921,13.549,22.5,7.83E+07
4239,75.398,1.7952,22.5,2.51E+07
4240,49.492,-4.2728,22.5,7.98E+07
4241,82.098,18.225,22.5,3.08E+07
4242,60.049,3.1572,22.5,9.52E+07
4243,81.889,8.3079,22.5,2.66E+07
4244,63.163,6.7961,22.5,9.83E+07
4245,85.458,12.603,22.5,2.46E+07
4246,79.799,24.833,22.5,5.33E+07
4247,47.694,-12.275,22.5,2.15E+07
4248,92.358,19.051,22.5,2.23E+07
4249,83.755,28.341,22.5,3.88E+07
4250,72.616,-2.1709,22.5,2.79E+07
4251,49.593,-20.33,22.5,8.00E+07
4252,57.32,-17.609,22.5,5.40E+07
4253,66.561,10.054,22.5,8.78E+07
4254,72.905,16.999,22.5,7.08E+07
4255,78.265,4.9235,22.5,2.56E+07
4256,47.146,-16.819,22.5,6.48E+07
4257,47.189,-7.4754,22.5,5.01E+07
4258,53.773,-5.1492,22.5,5.06E+07
4259,67.846,5.4159,22.5,5.53E+07
4260,88.759,21.677,22.5,2.35E+07
4261,64.808,2.2955,22.5,5.48E+07
4262,70.985,2.1431,22.5,2.26E+07
4263,74.203,12.379,22.5,4.84E+07
4264,57.091,-12.975,22.5,3.60E+07
4265,68.123,-0.83549,22.5,1.89E+07
4266,62.17,-12.397,22.5,3.95E+07
4267,89.917,14.239,22.5,3.01E+07
4268,100.31,34.324,5.5,3.42E+07
4269,93.149,35.343,5.5,2.72E+07
4270,95.943,40.216,5.5,2.75E+07
4271,100.17,29.302,5.5,3.75E+07
4272,104.75,31.021,5.5,2.97E+07
4273,112.27,35.059,5.5,3.81E+07
4274,118.08,48.956,5.5,1.43E+07
4275,97.822,48.776,5.5,1.06E+07
4276,103.79,55.106,5.5,1.35E+07
4277,111.44,55.349,5.5,7.19E+06
4278,118.5,41.908,5.5,5.54E+06
4279,115.65,38.236,5.5,2.13E+07
4280,100.84,52.276,5.5,1.83E+07
4281,115.02,52.411,5.5,1.35E+07
4282,91.503,40.137,5.5,1.14E+07
4283,96.882,44.496,5.5,1.27E+07
4284,88.929,36.616,5.5,1.53E+07
4285,96.066,26.963,5.5,4.66E+07
4286,104.17,36.413,5.5,2.20E+07
4287,103.4,27.066,5.5,4.84E+07
4288,96.462,31.936,5.5,3.45E+07
4289,107.75,56.732,5.5,7.21E+06
4290,108.63,33.406,5.5,3.61E+07
4291,120.39,45.921,5.5,8.71E+06
4292,92.447,30.624,5.5,3.24E+07
4293,99.762,40.398,5.5,3.90E+07
4294,100.63,24.853,5.5,6.03E+07
4295,118.71,37.791,5.5,5.71E+06
4296,97.048,35.924,5.5,3.55E+07
4297,89.762,33.141,5.5,2.29E+07
4298,115.32,55.512,5.5,7.23E+06
4299,99.996,55.171,5.5,1.00E+07
4300,97.783,52.774,5.5,8.68E+06
4301,118.03,53.012,5.5,8.28E+06
4302,116.43,35.32,5.5,1.44E+07
4303,100.31,34.324,21.5,3.21E+07
4304,93.698,35.354,21.5,2.71E+07
4305,95.943,40.216,21.5,1.82E+07
4306,100.19,29.364,21.5,2.18E+07
4307,104.75,31.021,21.5,1.74E+07
4308,112.27,35.059,21.5,2.77E+07
4309,118.08,48.956,21.5,1.28E+07
4310,97.822,48.776,21.5,1.81E+07
4311,103.79,55.106,21.5,1.30E+07
4312,111.44,55.349,21.5,1.19E+07
4313,118.5,41.908,21.5,4.39E+06
4314,115.65,38.236,21.5,1.89E+07
4315,100.84,52.276,21.5,1.69E+07
4316,115.02,52.411,21.5,1.47E+07
4317,91.503,40.137,21.5,2.44E+07
4318,96.882,44.496,21.5,9.75E+06
4319,96.091,27.024,21.5,2.39E+07
4320,104.17,36.413,21.5,2.97E+07
4321,103.4,27.066,21.5,2.21E+07
4322,96.641,32.126,21.5,2.83E+07
4323,107.75,56.732,21.5,9.59E+06
4324,108.63,33.406,21.5,2.18E+07
4325,120.39,45.921,21.5,5.98E+06
4326,92.445,30.81,21.5,2.96E+07
4327,99.762,40.398,21.5,3.28E+07
4328,100.63,24.853,21.5,2.75E+07
4329,118.71,37.791,21.5,6.73E+06
4330,89.048,35.113,21.5,3.81E+07
4331,97.111,35.881,21.5,3.00E+07
4332,115.32,55.512,21.5,1.14E+07
4333,99.996,55.171,21.5,8.51E+06
4334,97.783,52.774,21.5,1.05E+07
4335,118.03,53.012,21.5,1.06E+07
4336,116.43,35.32,21.5,1.15E+07
4337,42.721,-25,17.841,1.73E+08
4338,80.703,16.239,4.5,3.71E+07
4339,73.419,7.406,4.5,4.68E+07
4340,67.577,-3.615,4.5,8.70E+07
4341,85.161,22.782,4.5,2.95E+07
4342,82.571,9.471,4.5,7.54E+07
4343,88.999,16.059,4.5,6.27E+07
4344,75.137,17.422,4.5,1.77E+07
4345,76.278,1.5734,4.5,9.48E+07
4346,77.459,11.815,4.5,4.31E+07
4347,67.98,5.9528,4.5,3.02E+07
4348,77.786,21.421,4.5,1.73E+07
4349,69.098,10.66,4.5,1.89E+07
4350,79.351,5.7394,4.5,8.33E+07
4351,92.434,19.521,4.5,5.16E+07
4352,72.707,-2.3102,4.5,1.02E+08
4353,81.892,25.64,4.5,1.71E+07
4354,67.352,-8.3749,4.5,1.15E+08
4355,85.629,13.013,4.5,6.77E+07
4356,72.321,14.35,4.5,1.79E+07
4357,85.634,27.468,4.5,2.18E+07
4358,89.118,23.709,4.5,3.41E+07
4359,71.625,2.6872,4.5,6.54E+07
4360,70.626,-6.2133,4.5,1.15E+08
4361,88.083,20.188,4.5,4.31E+07
4362,67.743,0.81417,4.5,5.94E+07
4363,81.805,21.063,4.5,2.50E+07
4364,84.634,18.491,4.5,4.13E+07
4365,29.366,-20,-38.465,5.40E+07
4366,31.727,-20,-42.889,3.59E+07
4367,23.455,-20,-43.485,5.21E+07
4368,33.903,-20,-34.948,4.81E+07
4369,34.681,-20,-40.285,3.40E+07
4370,27.802,-20,-43.506,4.43E+07
4371,35.389,-20,-30.903,5.22E+07
4372,14.767,-20,-44.669,5.61E+07
4373,19.027,-20,-43.806,5.61E+07
4374,25.491,-20,-40.044,5.53E+07
4375,35.003,-20,-44.205,2.05E+07
4376,-13,41.349,72.096,1.56E+08
4377,-13,29.822,59.102,7.76E+08
4378,-13,34.354,54.344,4.76E+08
4379,-13,35.522,72.149,2.48E+08
4380,-13,29.292,65.783,6.27E+08
4381,-13,41.039,53.87,3.11E+08
4382,-13,31.483,69.879,3.66E+08
4383,-13,50.343,109.15,3.38E+07
4384,-13,41.637,109.45,2.31E+07
4385,-13,37.438,113.51,1.77E+07
4386,-13,46.329,107.94,2.64E+07
4387,-46.554,-1,68.945,1.11E+08
4388,-58.464,-1,63.38,1.10E+08
4389,-45.504,-1,64.689,1.39E+08
4390,-50.182,-1,66.016,9.29E+07
4391,-45.058,-1,73.199,1.11E+08
4392,-61.775,-1,67.298,7.49E+07
4393,-47.572,-1,76.411,9.47E+07
4394,-42.751,-1,69.883,1.33E+08
4395,-49.068,-1,72.157,9.59E+07
4396,-56.531,-1,59.137,1.32E+08
4397,-48.386,-1,61.064,1.47E+08
4398,-54.22,-1,66.745,7.28E+07
4399,-51.801,-1,60.072,1.39E+08
4400,-49.667,-1,79.528,5.07E+07
4401,-64.626,-1,-52.385,1.74E+06
4402,-58.043,-1,-63.766,9.20E+05
4403,-60.477,-1,-50.969,2.10E+06
4404,-61.392,-1,-55.745,1.83E+06
4405,-68.994,-1,-51.266,1.65E+06
4406,-61.658,-1,-67.405,9.97E+05
4407,-71.974,-1,-54.051,1.89E+06
4408,-65.891,-1,-48.679,2.31E+06
4409,-67.606,-1,-55.17,1.09E+06
4410,-53.985,-1,-61.47,1.34E+06
4411,-56.614,-1,-53.524,1.45E+06
4412,-61.765,-1,-59.831,1.65E+06
4413,-55.329,-1,-56.839,7.32E+05
4414,-74.897,-1,-56.409,2.12E+06
4415,-54.24,-11.5,63.07,1.06E+08
4416,-46.554,-11.5,68.945,1.09E+08
4417,-58.464,-11.5,63.38,1.08E+08
4418,-45.504,-11.5,64.689,1.30E+08
4419,-50.182,-11.5,66.016,8.96E+07
4420,-45.058,-11.5,73.199,1.11E+08
4421,-62.346,-11.5,66.234,8.01E+07
4422,-47.572,-11.5,76.411,9.22E+07
4423,-42.751,-11.5,69.883,1.30E+08
4424,-49.068,-11.5,72.157,9.02E+07
4425,-56.044,-11.5,59.45,1.31E+08
4426,-48.386,-11.5,61.064,1.38E+08
4427,-51.801,-11.5,60.072,1.35E+08
4428,-49.667,-11.5,79.528,4.80E+07
4429,-58.103,-11.5,-59.53,1.86E+06
4430,-64.626,-11.5,-52.385,4.09E+06
4431,-58.043,-11.5,-63.766,1.24E+06
4432,-60.477,-11.5,-50.969,5.57E+06
4433,-61.392,-11.5,-55.745,3.87E+06
4434,-68.994,-11.5,-51.266,2.13E+06
4435,-61.658,-11.5,-67.405,8.79E+05
4436,-71.974,-11.5,-54.051,1.61E+06
4437,-65.891,-11.5,-48.679,3.97E+06
4438,-67.606,-11.5,-55.17,2.75E+06
4439,-53.985,-11.5,-61.47,2.51E+06
4440,-56.614,-11.5,-53.524,5.42E+06
4441,-55.329,-11.5,-56.839,3.88E+06
4442,-74.897,-11.5,-56.409,2.36E+06
4443,41.688,-3.9571,4.5,6.54E+07
4444,-18,20.388,-53.807,6.27E+07
4445,-18,23.804,-57.092,2.60E+07
4446,-18,24.562,-51.663,1.71E+07
4447,-18,19.122,-49.458,9.75E+07
4448,-18,18.425,-57.082,1.06E+08
4449,-18,24.387,-48.183,3.09E+07
4450,18,17.464,-52.635,1.35E+08
4451,18,25.483,-49.356,2.50E+07
4452,18,24.595,-57.809,1.94E+07
4453,18,20.518,-48.694,9.69E+07
4454,18,19.63,-57.147,6.64E+07
4455,18,24.236,-53.486,3.09E+07
4456,77.358,-6.0572,15.466,1.11E+08
4457,84.32,1.5406,16.167,9.15E+07
4458,90.921,8.7441,16.167,7.44E+07
4459,97.522,15.948,16.167,6.05E+07
4460,102.42,21.288,14.833,5.12E+07
4461,74.679,-8.9803,10.939,1.33E+08
4462,93.121,11.145,10.833,8.29E+07
4463,86.52,3.9418,10.833,1.03E+08
4464,79.919,-3.2618,10.833,1.24E+08
4465,73.594,-10.165,16.167,1.11E+08
4466,96.907,15.276,11.071,7.41E+07
4467,100.52,19.218,10.167,6.79E+07
4468,103.98,23,10.597,5.52E+07
4469,83.22,0.33999,10.833,1.13E+08
4470,89.821,7.5435,10.833,9.25E+07
4471,94.221,12.346,16.167,6.66E+07
4472,87.62,5.1424,16.167,8.29E+07
4473,81.02,-2.0612,16.167,1.00E+08
4474,71.943,-11.966,12.167,1.25E+08
4475,100.16,18.822,17.736,5.24E+07
4476,104.86,23.959,16.167,4.46E+07
4477,99.304,17.892,13.652,6.24E+07
4478,77.334,-6.0834,10.128,1.33E+08
4479,13,34.42,71.725,3.51E+08
4480,13,42.69,54.293,1.76E+08
4481,13,34.483,54.238,4.26E+08
4482,13,42.603,71.765,1.93E+08
4483,13,47.139,58.535,7.06E+07
4484,13,30,67.477,5.29E+08
4485,13,30.024,58.454,7.21E+08
4486,13,47.087,67.607,7.68E+07
4487,13,48.442,63.076,3.77E+07
4488,13,28.692,62.964,6.65E+08
4489,13,38.33,52.426,2.79E+08
4490,13,38.235,73.573,2.27E+08
4491,13,37.04,114.61,1.88E+07
4492,13,50.667,109.69,3.98E+07
4493,13,54.703,113.95,8.51E+06
4494,13,36.939,121.21,2.84E+06
4495,13,54.689,122.12,3.11E+06
4496,13,41.513,126.56,1.31E+06
4497,13,50.753,126.46,1.86E+06
4498,13,41.247,109.54,5.30E+07
4499,13,45.612,108.14,5.06E+07
4500,13,46.142,127.87,1.25E+06
4501,13,56.147,117.39,4.84E+06
4502,20,7.8765,-48.678,2.90E+08
4503,20,6.7528,-56.807,2.61E+08
4504,20,8.4082,-44.858,2.12E+08
4505,20,8.1019,-53.143,2.82E+08
4506,-9.75,41.045,-55.055,8.29E+06
4507,-11.437,40.638,-58.929,5.84E+06
4508,-11.437,41.453,-51.18,5.76E+06
4509,-6.8437,41.298,-52.648,7.31E+06
4510,-6.9219,40.797,-57.413,6.83E+06
4511,9.75,41.045,-55.055,1.37E+07
4512,8.0625,40.638,-58.929,9.78E+06
4513,8.0625,41.453,-51.18,1.02E+07
4514,12.656,41.298,-52.648,1.06E+07
4515,12.578,40.797,-57.413,1.09E+07
4516,0,-13,-52.816,1.68E+08
4517,-66.877,-4.7336,-50.906,1.89E+06
4518,-71.174,-3.7533,-49.853,2.10E+06
4519,-66.195,-8.3734,-46.108,3.23E+06
4520,-59.888,-7.0928,-53.299,3.20E+06
4521,-70.996,-8.1419,-49.544,1.96E+06
4522,-64.846,-4.6934,-54.532,2.27E+06
4523,-63.557,-2.9355,-43.68,3.99E+06
4524,-69.235,-8.0485,-54.536,1.22E+06
4525,-74.036,-7.4373,-53.367,1.72E+06
4526,-63.055,-8.2531,-57.295,2.64E+06
4527,-75.519,-3.75,-55.15,1.81E+06
4528,-60.193,-7.8333,-39.69,6.77E+06
4529,-58.785,-3.5627,-44.13,3.77E+06
4530,-52.848,-8.0578,-56.815,3.14E+06
4531,-60.895,-5.0698,-61.132,1.09E+06
4532,-77.351,-8.6596,-55.542,1.41E+06
4533,-61.172,-7.3286,-64.936,9.17E+05
4534,-55.428,-3.7571,-47.369,3.73E+06
4535,-78.732,-3.6025,-57.83,9.39E+05
4536,-56.682,-4.5764,-36.337,7.22E+06
4537,-58.683,-9.5697,-35.912,1.02E+07
4538,-48.663,-3.8236,-50.757,4.38E+06
4539,-51.582,-8.3233,-61.429,1.93E+06
4540,-55.54,-4.52,-64.943,7.28E+05
4541,-78.258,-7.6624,-61.552,1.20E+06
4542,-62.093,-8.0194,-70.713,9.09E+05
4543,-49.833,-8.8091,-40.839,7.25E+06
4544,-48.94,-3.5428,-56.465,3.19E+06
4545,-53.393,-7.8333,-32.522,9.48E+06
4546,-80.043,-4.1374,-62.685,3.87E+05
4547,-57.965,-8.7814,-68.568,6.47E+05
4548,-59.669,-5,-68.801,5.05E+05
4549,-43.737,-4.9252,-45.894,6.30E+06
4550,-45.365,-7.758,-56.542,4.77E+06
4551,-47.752,-3.6751,-60.794,2.68E+06
4552,-80.457,-8.4327,-65.676,4.56E+05
4553,-65.833,-8.5734,-72.95,7.33E+05
4554,-66.132,-3.789,-73.601,8.85E+05
4555,-44.472,-3.0132,-56.893,4.80E+06
4556,-50.177,-4.8168,-28.987,9.34E+06
4557,-42.873,-8.5588,-38.844,1.20E+07
4558,-40.443,-8.6254,-52.586,7.77E+06
4559,-78.435,-8.4158,-69.594,7.70E+05
4560,-69.071,-8.1519,-74.469,5.94E+05
4561,-62.077,-3.8579,-72.21,8.28E+05
4562,-52.347,-9.5161,-29.303,1.34E+07
4563,-37.71,-3.8507,-50.765,7.93E+06
4564,-79.271,-3.9143,-68.176,7.01E+05
4565,-46.728,-7.9648,-25.645,1.93E+07
4566,-72.672,-8.2703,-73.553,6.94E+05
4567,-71.447,-2.9201,-73.772,5.19E+05
4568,-33.914,-4.6301,-45.081,2.36E+07
4569,-36.603,-7.8453,-35.365,6.11E+07
4570,-36.476,-8.407,-49.721,7.72E+06
4571,-45.394,-3.3944,-23.378,3.30E+07
4572,-76.599,-4.1439,-71.558,6.63E+05
4573,-40.02,-4.2606,-25.648,7.32E+07
4574,-45.752,-9.1755,-21.695,2.71E+07
4575,-29.023,-4.2485,-45.13,5.80E+07
4576,-28.455,-4.6406,-38.199,1.74E+08
4577,-29.141,-9.5767,-45.705,5.54E+07
4578,-44.925,-11.154,-19.157,4.09E+07
4579,-42.207,-4.628,-19.912,6.51E+07
4580,44.982,-24.247,-7.57E-02,1.09E+08
4581,-30.007,-4.7273,-28.27,1.59E+08
4582,-18.849,11.764,-59.585,9.85E+07
4583,-35.62,-4.6525,-20.59,1.07E+08
4584,-25.073,-3.9965,-42.567,2.15E+08
4585,-26.119,-9.8407,-43.938,1.68E+08
4586,-42.254,-11.122,-15.584,1.18E+08
4587,-41.101,-9.439,-16.139,1.20E+08
4588,-39.686,-3.6568,-15.548,8.06E+07
4589,-21.181,-11.309,-33.306,2.44E+08
4590,-25.614,-5.1143,-25.156,1.68E+08
4591,-22.825,-10.723,-28.686,2.27E+08
4592,-21.768,-5.0564,-28.781,2.12E+08
4593,-28.091,-13.818,-22.789,2.25E+08
4594,-28.704,-3.5019,-22.215,1.36E+08
4595,-21.152,-10.409,-40.837,1.85E+08
4596,-37.711,-2.7466,-10.615,7.21E+07
4597,-39.789,-11.56,-11.269,2.39E+08
4598,-31.917,-11.712,-16.872,1.73E+08
4599,-31.945,-3.2269,-16.864,9.45E+07
4600,-21.597,-2.2291,-41.584,4.55E+08
4601,-23.383,-11.068,-44.263,2.42E+08
4602,-32.582,-15.445,-13.888,2.07E+08
4603,-18.204,-1.6918,-39.331,3.49E+08
4604,-33.682,-3.4542,-11.908,6.42E+07
4605,-19.164,-13.914,-30.96,2.24E+08
4606,-15.678,-5.7732,-33.126,1.87E+08
4607,-17.076,0.14523,-43.227,3.90E+08
4608,-7.3197,-11.124,-46.291,1.53E+08
4609,-35.989,-2.7112,-6.5563,4.96E+07
4610,-34.845,-14.3,-9.9011,2.32E+08
4611,-23.795,-20.749,-25.547,2.01E+08
4612,-17.894,2.9369,-43.306,2.50E+08
4613,-19.533,1.1749,-40.93,7.58E+08
4614,-18.858,-15.995,-45.812,6.74E+07
4615,-13.443,-16.866,-44.729,7.70E+07
4616,-7.6884,-8.1706,-35.19,7.49E+07
4617,-35.77,-7.4081,-4.1295,1.29E+08
4618,-30.699,-20.308,-18.043,2.11E+08
4619,-17.991,-18.357,-32.24,1.77E+08
4620,-17.567,-17.22,-42.161,4.84E+07
4621,-33.928,-19.045,-10.005,2.24E+08
4622,-10.127,-4.1707,-33.734,7.85E+07
4623,-16.463,-17.739,-37.485,1.20E+08
4624,-9.3062,-13.158,-48.682,1.54E+08
4625,-14.958,-0.8839,-51.132,2.55E+08
4626,-35.172,-3.8185,-1.2876,9.98E+07
4627,-35.954,-13.257,-5.1469,2.30E+08
4628,-19.384,-22.864,-29.796,1.80E+08
4629,-9.7105,-16.182,-46.841,1.16E+08
4630,-4.5893,-14.885,-41.377,1.14E+08
4631,-9.1635,-17.141,-39.505,9.09E+07
4632,-5.0459,-4.184,-35.289,4.38E+07
4633,-19.123,-18.076,-40.285,6.64E+07
4634,-9.494,-20.904,-34.424,1.26E+08
4635,-8.5271,-17.813,-43.291,1.14E+08
4636,-8.7708,-6.3597,-54.582,1.72E+08
4637,-4.7276,4.7962,-48.12,2.66E+08
4638,-35.405,-2.287,3.0703,1.61E+08
4639,-16.058,8.5362,-44.155,1.27E+08
4640,-18.513,-17.947,-45.172,3.22E+07
4641,-18.754,-18.189,-47.241,4.25E+07
4642,-8.3844,-18.423,-45.743,1.43E+08
4643,-13.294,-11.267,-55.015,1.19E+08
4644,-17.094,-0.25469,-57.697,1.76E+08
4645,-8.2095,6.1639,-54.012,3.32E+08
4646,-35.262,-15.837,-1.7967,2.58E+08
4647,-23.615,-27.785,-25.558,1.43E+08
4648,-20.375,-26.964,-28.772,1.45E+08
4649,-10.464,-15.348,-52.805,1.15E+08
4650,1.8193,-11.308,-35.424,7.83E+07
4651,1.1185,-3.4923,-37.567,5.63E+07
4652,-4.6947,-9.3061,-55.832,1.80E+08
4653,0.28233,3.5618,-44.165,1.93E+08
4654,-12.28,12.454,-50.048,1.88E+08
4655,-10.645,8.8808,-45.237,1.94E+08
4656,-17.673,9.879,-52.219,2.15E+08
4657,-34.89,-20.245,0.50867,2.43E+08
4658,-34.314,-26.939,-8.2737,1.81E+08
4659,-34.821,-15.409,2.6961,2.44E+08
4660,-29.78,-30.677,-18.893,1.33E+08
4661,-15.718,15.653,-44.62,1.73E+08
4662,-3.5567,-19.391,-35.998,1.22E+08
4663,-16.567,-4.9538,-56.747,1.35E+08
4664,-3.3344,3.3489,-56.596,3.98E+08
4665,-6.0153,6.6184,-44.41,2.09E+08
4666,-34.712,-2.1466,7.629,2.31E+08
4667,-27.286,-31.872,-22.243,1.17E+08
4668,-17.705,-15.774,-53.637,6.31E+07
4669,-14.615,-27.799,-32.072,1.07E+08
4670,-8.9357,-14.277,-56.998,1.03E+08
4671,-17.792,-11.387,-56.706,7.32E+07
4672,-0.24456,-9.434,-56.46,1.90E+08
4673,-16.785,4.3265,-58.024,1.88E+08
4674,-13.891,14.958,-54.843,1.44E+08
4675,-32.892,-31.036,-11.708,1.34E+08
4676,-31.032,-36.183,-15.605,9.02E+07
4677,-3.4587,-23.934,-35.923,1.28E+08
4678,0.66437,-17.616,-40.606,9.47E+07
4679,4.2358,-0.87145,-42.371,1.36E+08
4680,2.2725,3.0233,-52.514,3.31E+08
4681,0.31671,3.6136,-58.166,5.02E+08
4682,-12.691,18.421,-48.886,1.48E+08
4683,-17.064,9.7834,-57.921,1.93E+08
4684,-12.691,11.752,-58.089,1.77E+08
4685,-34.255,-9.5445,6.7178,2.09E+08
4686,1.7316,-21.125,-35.963,1.31E+08
4687,7.2899,-4.2026,-36.499,8.47E+07
4688,6.3038,4.5324,-44.734,2.19E+08
4689,-35.015,-2.2332,12.307,2.91E+08
4690,-34.639,-6.1015,8.8573,2.26E+08
4691,7.2292,-6.9271,-55.668,1.96E+08
4692,-19.588,11.997,-55.793,9.99E+07
4693,-11.576,16.41,-59.098,1.24E+08
4694,-33.533,-10.159,11.307,1.96E+08
4695,-34.529,-15.722,7.6312,2.49E+08
4696,4.0776,-17.937,-40.125,1.11E+08
4697,3.7775,-10.264,-56.895,1.99E+08
4698,3.9987,3.6764,-56.43,4.42E+08
4699,-10.929,22.546,-46.38,1.17E+08
4700,-15.231,20.229,-45.313,1.09E+08
4701,-3.1598,-30.039,-34.827,9.69E+07
4702,3.0095,-25.819,-34.8,1.27E+08
4703,6.0674,-22.782,-34.847,1.28E+08
4704,-15.635,13.952,-59.621,1.17E+08
4705,-13.556,22.308,-54.394,7.24E+07
4706,-35.666,-2.7574,17.007,2.93E+08
4707,-33.458,-20.052,9.9262,2.11E+08
4708,-34.901,-31.93,4.8395,1.52E+08
4709,8.0755,-17.341,-43.466,7.50E+07
4710,12.968,-17.363,-37.924,9.59E+07
4711,13.036,-3.0208,-32.255,1.20E+08
4712,11.171,5.2223,-56.287,3.31E+08
4713,-14.925,18.827,-59.397,7.99E+07
4714,-10.51,21.535,-58.957,7.92E+07
4715,-14.281,26.752,-47.812,3.26E+07
4716,-31.462,-7.6928,17.439,1.70E+08
4717,-24.856,-41.891,-26.361,5.56E+07
4718,-10.325,-39.478,-32.961,4.52E+07
4719,-3.4793,-36.438,-35.075,4.92E+07
4720,2.926,-31.025,-34.732,9.61E+07
4721,11.92,-20.219,-34.309,1.21E+08
4722,6.7237,-18.293,-41.825,7.63E+07
4723,12.658,-1.0718,-42.609,1.86E+08
4724,9.1221,-13.108,-46.942,1.29E+08
4725,13.129,12.779,-46.094,2.26E+08
4726,13.394,3.5975,-44.812,2.01E+08
4727,6.9243,-11.466,-57.308,1.54E+08
4728,-9.986,24.458,-51.141,7.67E+07
4729,-14.637,23.233,-60.905,3.61E+07
4730,-33.833,-15.841,11.306,2.30E+08
4731,9,-13.437,-56.537,1.60E+08
4732,9.9507,9.2226,-58.302,3.51E+08
4733,-37.284,-2.3043,21.462,2.79E+08
4734,15.712,-17.967,-31.957,1.25E+08
4735,16.789,-3.4954,-31.61,1.51E+08
4736,16.862,1.6228,-43.603,2.44E+08
4737,11.269,17.848,-45.38,2.62E+08
4738,17.146,-6.6339,-56.162,1.46E+08
4739,18.106,0.68489,-57.326,2.97E+08
4740,16.692,9.9366,-47.315,2.35E+08
4741,18.731,9.3715,-51.884,2.41E+08
4742,-9.2911,27.632,-46.79,5.29E+07
4743,-29.957,-4.1629,20.467,1.80E+08
4744,-37.205,-11.606,17.988,2.47E+08
4745,-34.59,-40.925,-3.9456,6.80E+07
4746,2.3953,-36.737,-34.677,6.04E+07
4747,21.367,-3.1069,-39.804,1.86E+08
4748,17.109,4.615,-58.163,2.27E+08
4749,14.232,13.922,-51.751,1.65E+08
4750,15.3,15.792,-45.134,2.14E+08
4751,10.354,-14.988,-53.518,1.14E+08
4752,-4.4214,27.461,-46.23,7.47E+07
4753,-13.72,27.869,-60.851,1.43E+07
4754,-15.728,30.452,-46.376,1.30E+07
4755,-26.753,-3.1867,23.867,1.87E+08
4756,-30.489,-11.824,19.33,1.87E+08
4757,-30.658,-25.623,16.076,1.54E+08
4758,-31.599,-30.091,15.294,1.41E+08
4759,8.6056,-18.245,-45.933,3.84E+07
4760,17.075,-22.035,-30.989,1.37E+08
4761,19.129,-16.295,-49.318,6.76E+07
4762,17.062,12.034,-43.566,2.87E+08
4763,-4.624,26.583,-59.198,4.89E+07
4764,-37.689,-9.0739,23.419,1.45E+08
4765,-31.603,-35.874,15.155,1.05E+08
4766,-0.16902,-40.513,-34.186,4.70E+07
4767,8.1711,-36.293,-33.9,6.33E+07
4768,27.476,-10.795,-33.594,1.19E+08
4769,20.509,-17.599,-29.863,1.22E+08
4770,20.908,-3.6374,-29.155,1.51E+08
4771,-38.696,-3.3282,26.045,1.94E+08
4772,9.2349,-17.779,-49.021,3.70E+07
4773,10.183,23.003,-47.197,1.34E+08
4774,15.087,14.017,-59.332,7.26E+07
4775,12.459,18.042,-59.408,7.98E+07
4776,-27.651,-13.562,22.924,2.14E+08
4777,-32.119,-4.227,28.539,1.84E+08
4778,-27.834,-20.544,20.786,1.87E+08
4779,15.989,-28.696,-31.185,1.11E+08
4780,25.582,-16.239,-42.345,6.51E+07
4781,27.276,-16.004,-36.098,8.33E+07
4782,20.001,-27.291,-29.446,1.12E+08
4783,13.314,21.068,-51.312,1.01E+08
4784,23.631,-5.931,-56.336,8.86E+07
4785,18.981,9.1146,-56.322,1.98E+08
4786,14.488,21.269,-46.024,1.21E+08
4787,3.6877,38.786,-59.063,4.06E+06
4788,-9.7351,38.154,-48.875,3.41E+06
4789,-15.192,34.485,-61.726,3.51E+06
4790,-4.2816,31.448,-61.521,9.78E+06
4791,-22.979,-2.8684,27.495,2.03E+08
4792,24.631,-12.902,-26.972,1.22E+08
4793,24.667,-3.2308,-26.032,1.39E+08
4794,26.468,-4.1307,-32.427,1.68E+08
4795,24.737,-3.516,-48.784,1.76E+08
4796,10.273,21.59,-58.924,6.94E+07
4797,-15.219,34.47,-47.164,4.72E+06
4798,-4.9249,34.944,-47.299,5.47E+06
4799,-24.978,-13.116,25.866,2.44E+08
4800,-39.486,-9.0422,28.988,9.66E+07
4801,30.077,-4.6508,-41.87,1.29E+08
4802,30.971,-16.443,-40.449,5.74E+07
4803,31.108,-15.898,-32.541,7.87E+07
4804,23.405,-20.944,-27.143,1.32E+08
4805,26.469,-15.508,-49.782,4.57E+07
4806,25.039,-2.1713,-58.39,1.08E+08
4807,-4.2773,39.151,-47.626,2.95E+06
4808,-40.845,-3.6215,30.052,1.35E+08
4809,-29.181,-40.575,18.227,8.18E+07
4810,10.364,-40.562,-32.963,4.05E+07
4811,30.762,-4.8017,-35.829,1.63E+08
4812,24.335,-27.034,-25.253,1.22E+08
4813,27.926,-4.5606,-21.947,1.21E+08
4814,29.937,-4.6358,-50.513,9.42E+07
4815,13.82,27.311,-47.147,4.27E+07
4816,-15.198,38.968,-47.796,1.07E+06
4817,-10.634,37.486,-61.895,2.90E+06
4818,-4.3037,37.429,-62.014,1.11E+06
4819,-18.799,-3.104,31.021,2.41E+08
4820,-23.64,-30.367,25.914,1.27E+08
4821,36.415,-16.714,-42.492,2.69E+07
4822,26.252,-21.487,-24.424,1.34E+08
4823,30.982,-15.063,-50.329,2.82E+07
4824,15.168,26.642,-57.262,1.88E+07
4825,10.153,24.125,-54.298,6.50E+07
4826,4.9352,27.552,-47.982,7.12E+07
4827,31.798,-5.0513,-54.686,4.69E+07
4828,-27.219,-4.2331,34.326,1.93E+08
4829,-20.914,-10.5,29.619,2.72E+08
4830,-34.149,-8.8474,35.486,1.67E+08
4831,-25.994,-34.883,23.718,9.66E+07
4832,35.217,-14.087,-36.975,7.73E+07
4833,36.546,-16.621,-32.516,7.08E+07
4834,29.04,-14.968,-21.672,1.24E+08
4835,34.781,-4.4686,-29.641,1.68E+08
4836,35.424,-4.3826,-34.816,1.55E+08
4837,35.146,-5.2149,-44.535,7.76E+07
4838,27.064,-9.3193,-55.685,3.85E+07
4839,15.011,22.845,-60.559,3.31E+07
4840,11.57,27.034,-59.997,2.52E+07
4841,-43.548,-2.5529,34.603,1.28E+08
4842,-20.923,-16.077,28.862,3.05E+08
4843,-42.565,-8.6392,33.386,7.55E+07
4844,-25.957,-40.343,22.583,8.61E+07
4845,35.183,-4.9179,-50.237,5.37E+07
4846,6.9332,28.685,-60.537,2.53E+07
4847,4.2526,25.855,-60.365,5.54E+07
4848,-4.817,37.781,-57.927,3.49E+06
4849,-21.169,-20.159,27.491,2.40E+08
4850,36.49,-10.388,-47.983,2.08E+07
4851,35.158,-6.9314,-39.052,9.31E+07
4852,29.571,-21.909,-20.874,1.33E+08
4853,31.568,-3.0139,-17.166,1.15E+08
4854,36.528,-15.806,-50.337,9.37E+06
4855,9.9537,32.248,-47.155,1.62E+07
4856,35.994,-5.9998,-56.874,7.60E+06
4857,-13.214,-2.9834,33.857,3.09E+08
4858,-15.962,-10.163,32.237,3.13E+08
4859,-39.255,-8.2793,40.455,8.71E+07
4860,-21.976,-34.53,27.655,8.18E+07
4861,35.753,-14.116,-25.293,1.08E+08
4862,36.215,-16.485,-46.661,1.58E+07
4863,15.214,32.095,-60.644,1.18E+07
4864,-47.876,-2.526,39.631,1.05E+08
4865,-27.99,-4.5333,42.538,1.33E+08
4866,-20.832,-8.8605,39.37,3.24E+08
4867,-17.571,-19.594,30.147,2.62E+08
4868,-17.308,-14.479,30.704,3.22E+08
4869,36.6,-13.743,-29.245,1.14E+08
4870,37.228,-14.078,-55.772,8.24E+06
4871,14.547,34.192,-47.323,1.03E+07
4872,4.3409,34.661,-47.584,1.04E+07
4873,10.76,34.768,-60.348,7.96E+06
4874,-46.073,-10.209,37.31,1.31E+08
4875,35.739,-14.992,-18.705,1.42E+08
4876,32.548,-3.9167,-11.966,9.24E+07
4877,35.178,-5.0146,-19.393,1.59E+08
4878,-16.44,-24.766,30.668,1.81E+08
4879,28.869,-31.64,-19.872,9.11E+07
4880,32.346,-22.071,-15.986,1.37E+08
4881,15.285,37.727,-50.538,4.91E+06
4882,4.8541,32.81,-61.018,1.02E+07
4883,-8.3373,-5.5359,35.178,2.26E+08
4884,-15.193,-10.274,40.273,3.92E+08
4885,-13.082,-13.392,33.682,3.30E+08
4886,-33.563,-8.6454,47.116,1.05E+08
4887,38.272,-8.1937,-58.16,6.81E+06
4888,15.403,37.603,-57.294,7.23E+06
4889,-8.1893,-11.799,34.996,2.37E+08
4890,-13.746,-21.193,32.31,2.16E+08
4891,-11.984,-25.115,33.266,1.43E+08
4892,34.96,-11.477,-13.675,1.48E+08
4893,30.477,-36.157,-18.109,6.06E+07
4894,34.845,-20.183,-14.217,1.52E+08
4895,32.324,-26.461,-13.133,1.18E+08
4896,10.151,37.419,-48.192,6.26E+06
4897,4.6524,39.151,-47.665,4.07E+06
4898,5.2973,38.549,-53.228,8.84E+06
4899,38.078,-1.9442,-58.815,3.19E+06
4900,15.159,37.34,-61.694,3.08E+06
4901,-49.12,-7.8115,45.61,5.47E+07
4902,-27.497,-4.0697,49.112,1.15E+08
4903,-2.7439,-3.0119,35.74,1.25E+08
4904,-41.124,-4.2756,47.496,6.34E+07
4905,-16.881,-40.501,30.058,7.33E+07
4906,38.378,-18.89,-16.949,1.88E+08
4907,31.637,-32.075,-16.108,8.86E+07
4908,33.231,-23.355,-13.053,1.33E+08
4909,36.336,-3.1425,-6.5127,1.26E+08
4910,15.592,39.413,-47.32,1.10E+06
4911,-9.8598,0.3673,41.171,5.09E+08
4912,36.542,-13.255,-8.0196,1.51E+08
4913,4.5285,37.902,-62.254,1.48E+06
4914,-19.35,-7.2218,48.645,2.84E+08
4915,-22.243,-2.8384,51.124,2.32E+08
4916,-9.1404,-20.266,34.272,1.73E+08
4917,-7.2368,-25.551,35.132,9.90E+07
4918,39.66,-19.735,-15.927,2.28E+08
4919,37.262,-19.454,-10.357,1.87E+08
4920,-25.871,-4.3708,54.418,8.44E+07
4921,2.7435,-3.0118,35.734,1.79E+08
4922,-33.324,-4.2189,54.007,7.51E+07
4923,-5.3663,-36.469,35.603,7.95E+07
4924,-7.5758,-31.602,34.173,6.96E+07
4925,36.361,-16.715,-3.5448,1.37E+08
4926,33.089,-30.533,-10.82,1.04E+08
4927,37.622,-1.5193,-2.1328,1.52E+08
4928,36.124,-6.9153,-3.6514,1.20E+08
4929,-52.302,-9.4322,47.717,8.97E+07
4930,-51.994,-3.7784,49.085,6.40E+07
4931,-25.925,-9.1842,54.191,1.15E+08
4932,-18.106,-2.5828,48.808,4.67E+08
4933,-12.7,-8.7196,47.834,2.58E+08
4934,-8.7854,3.1362,44.568,4.91E+08
4935,-41.625,-7.6446,55.211,4.25E+07
4936,-0.44474,-15.916,35.798,8.63E+07
4937,-8.3533,-14.513,46.698,1.55E+08
4938,-11.199,-4.7694,47.901,2.82E+08
4939,34.529,-26.267,-8.9473,1.31E+08
4940,-15.938,38.713,-58.661,2.42E+06
4941,-7.5673,-21.544,38.292,1.20E+08
4942,40.524,-17.817,-0.97776,1.15E+08
4943,36.924,-16.718,1.5959,1.22E+08
4944,-54.249,-9.1832,51.575,7.89E+07
4945,-29.028,-4.0741,58.219,7.29E+07
4946,1.1206,-1.0025,43.024,2.45E+08
4947,7.6966,-4.0389,34.85,2.40E+08
4948,-1.6332,-23.176,35.673,1.04E+08
4949,-36.82,-3.9663,60.444,7.12E+07
4950,-0.99187,-31.253,34.966,9.17E+07
4951,35.417,-6.9607,1.67,1.17E+08
4952,-31.89,-8.8333,60.073,8.29E+07
4953,-8.1347,-21.471,45.309,1.25E+08
4954,-8.2533,7.7307,46.262,2.85E+08
4955,-52.043,-8.1255,56.919,4.69E+07
4956,36.24,-25.174,-1.0248,1.48E+08
4957,-55.482,-4.1589,53.337,5.50E+07
4958,5.9729,-21.429,42.693,9.30E+07
4959,-5.1523,-20.644,48.8,1.00E+08
4960,9.4083,-1.3176,40.588,4.00E+08
4961,-7.6948,-46.973,34.451,5.85E+07
4962,-9.2146,-23.175,42.439,1.14E+08
4963,38.101,-24.551,-4.7425,1.49E+08
4964,35.668,-16.618,6.6167,1.11E+08
4965,38.009,-1.4473,5.944,6.85E+07
4966,-32.236,-3.2208,61.932,8.27E+07
4967,10.117,-13.511,39.264,1.83E+08
4968,7.6655,-14.544,52.357,1.12E+08
4969,-7.9114,-20.394,52.343,7.92E+07
4970,-7.3661,-1.8343,53.731,4.50E+08
4971,1.377,-27.467,35.593,1.36E+08
4972,-44.305,-8.192,62.14,4.55E+07
4973,3.3696,-41.95,34.134,9.38E+07
4974,35.176,-34.75,0.31616,1.00E+08
4975,-57.766,-8.3679,56.515,5.72E+07
4976,-34.82,-8.8127,63.547,7.47E+07
4977,-7.134,-9.7648,55.622,1.81E+08
4978,8.0867,-21.321,45.736,6.06E+07
4979,7.6121,1.3374,47.247,2.96E+08
4980,-2.7851,-46.904,34.859,5.39E+07
4981,34.481,-40.951,-4.0664,4.12E+07
4982,45.555,-21.657,3.6503,6.96E+07
4983,36.052,-25.293,4.6904,1.63E+08
4984,35.301,-9.8019,6.6912,9.07E+07
4985,-59.025,-4.2596,57.773,5.55E+07
4986,-1.5287,-12.896,61.164,9.08E+07
4987,13.119,-5.6455,34.753,3.79E+08
4988,16.477,-4.0369,31.902,5.35E+08
4989,-55.341,-6.0454,61.333,4.39E+07
4990,45.695,-13.576,3.6129,5.36E+07
4991,8.7652,-22.985,35.108,1.30E+08
4992,9.6044,-22.438,51.701,7.25E+07
4993,13.291,-13.706,34.094,1.98E+08
4994,-7.2859,-17.363,56.86,6.32E+07
4995,6.9288,-5.7106,57.442,1.27E+08
4996,1.5939,9.4317,48.203,4.16E+08
4997,-6.5525,-3.7871,61.295,1.64E+08
4998,-8.0879,12.392,48.533,2.01E+08
4999,-35.579,-3.3336,65.816,7.48E+07
5000,34.66,-25.534,9.3559,1.75E+08
5001,32.913,-3.0167,14.755,1.45E+08
5002,-36.761,-8.9223,68.377,7.61E+07
5003,4.6495,-15.885,60.147,3.03E+07
5004,7.6139,-17.123,56.954,6.66E+07
5005,2.9445,-47.043,35.305,6.52E+07
5006,42.557,-21.147,12.178,1.19E+08
5007,33.12,-15.251,15.117,1.02E+08
5008,-60.729,-7.8106,61.562,5.16E+07
5009,-3.3445,-15.446,61.712,4.35E+07
5010,-7.1492,-9.2456,61.352,8.51E+07
5011,11.239,-23.716,45.491,5.46E+07
5012,10.097,-22.964,48.75,6.40E+07
5013,5.3758,-9.3385,63.043,7.13E+07
5014,16.296,-9.5298,31.94,3.48E+08
5015,6.5348,5.0044,60.496,2.06E+08
5016,5.7148,-4.6115,64.318,1.23E+08
5017,-48.621,-7.8022,69.293,5.31E+07
5018,-57.267,-6.9559,65.684,5.12E+07
5019,-18.292,8.9272,-60.504,1.16E+08
5020,43.365,-3.4867,8.5349,7.65E+07
5021,3.4626,-14.634,62.914,3.99E+07
5022,12.692,-25.917,33.863,1.32E+08
5023,13.279,-23.68,39.179,1.36E+08
5024,15.483,-17.92,32.172,1.67E+08
5025,-7.0719,-1.0858,65.192,1.36E+08
5026,-6.1506,-8.5144,66.029,6.51E+07
5027,-8.0352,17.336,48.197,2.84E+08
5028,-40.132,-4.6359,69.874,4.64E+07
5029,-52.536,-7.0079,66.668,5.72E+07
5030,51.115,-21.434,5.41,9.37E+07
5031,33.419,-21.955,14.554,1.44E+08
5032,30.2,-4.6329,18.853,2.14E+08
5033,18.571,-14.471,30.594,2.86E+08
5034,-2.5242,6.1179,65.954,3.27E+08
5035,4.9566,2.9934,64.875,2.46E+08
5036,-50.616,-4.3678,69.698,5.22E+07
5037,47.842,-6.7704,3.0427,2.73E+07
5038,33.255,-26.392,13.734,2.04E+08
5039,41.552,-22.4,19.62,1.85E+08
5040,30.228,-15.061,20.095,1.28E+08
5041,34.583,-3.622,20.256,2.10E+08
5042,-8.5034,-14.726,62.126,4.96E+07
5043,20.605,-10.789,28.455,3.53E+08
5044,5.9564,13.756,49.356,3.03E+08
5045,21.516,-3.4777,28.225,5.73E+08
5046,-40.705,-8.6934,71.715,6.74E+07
5047,-48.478,-8.1237,74.303,5.01E+07
5048,55.285,-8.7491,8.0294,5.70E+07
5049,-15.77,39.279,-50.045,1.69E+06
5050,42.076,-6.2337,18.336,9.42E+07
5051,46.823,-18.762,18.476,9.34E+07
5052,47.999,-1.6637,7.5216,8.01E+07
5053,-63.36,-5.5132,64.624,4.18E+07
5054,15.867,-22.664,32.762,1.68E+08
5055,19.637,-18.729,29.388,2.37E+08
5056,8.5129,-13.453,63.37,4.85E+07
5057,8.4191,-6.4574,67.882,4.41E+07
5058,-7.3714,0.99841,69.717,1.05E+08
5059,-6.7065,-4.2455,68.388,7.12E+07
5060,6.7691,8.5361,64.764,2.41E+08
5061,-65.355,-8.1976,68.021,3.72E+07
5062,16.568,-27.972,31.662,1.74E+08
5063,65.698,-16.839,5.8568,1.22E+08
5064,31.854,-32.471,15.595,2.10E+08
5065,22.16,-14.836,27.377,2.70E+08
5066,-4.6049,9.5591,67.505,2.64E+08
5067,6.1849,1.3678,69.702,1.55E+08
5068,-1.0177,23.609,50.89,2.94E+08
5069,-43.832,-5.3588,74.543,4.56E+07
5070,56.642,-19.157,7.3029,1.01E+08
5071,28.667,-10.162,21.852,2.05E+08
5072,30.47,-25.175,19.536,2.52E+08
5073,28.561,-20.931,21.799,1.88E+08
5074,28.123,-2.8909,23.45,3.81E+08
5075,-67.712,-3.4799,72.425,2.63E+07
5076,7.55,20.67,50.75,3.23E+08
5077,-8.3341,23.935,50.552,4.17E+08
5078,-2.0482,15.452,69.959,2.75E+08
5079,-48.453,-4.9848,76.653,4.64E+07
5080,-49.683,-8.4663,78.922,4.64E+07
5081,19.505,-28.376,29.506,2.50E+08
5082,50.248,-3.0028,4.3088,3.65E+07
5083,62.283,-19.562,5.6295,1.23E+08
5084,46.475,-2.7944,18.133,1.18E+08
5085,40.86,-2.7355,19,1.59E+08
5086,46.054,-24.067,21.612,1.34E+08
5087,-66.625,-2.7533,66.737,3.41E+07
5088,21.982,-22.118,27.691,2.72E+08
5089,24.676,-10.399,25.717,3.18E+08
5090,8.3449,5.9722,69.966,2.03E+08
5091,7.3839,14.567,69.483,2.96E+08
5092,-66.935,-8.2778,71.698,3.23E+07
5093,20.994,-31.504,27.581,2.76E+08
5094,55.855,-15.373,18.21,5.90E+07
5095,28.36,-31.338,20.423,2.59E+08
5096,18.266,8.8756,-60.969,6.57E+07
5097,23.416,-18.565,26.773,2.52E+08
5098,57.129,-2.1895,7.375,3.36E+07
5099,51.543,-1.3843,17.921,1.01E+08
5100,7.9564,25.312,51.565,3.67E+08
5101,7.0782,22.042,62.239,4.30E+08
5102,-7.9151,6.1923,70.173,1.44E+08
5103,-8.0752,28.488,50.852,3.82E+08
5104,-7.0454,19.576,71.552,2.13E+08
5105,-45.574,-8.6261,78.046,4.85E+07
5106,-50.309,-4.2983,82.368,3.49E+07
5107,-68.189,-8.1199,75.331,2.75E+07
5108,22.306,-41.221,26.753,1.30E+08
5109,26.352,-26.837,24.325,3.37E+08
5110,55.25,2.1334,6.476,6.03E+07
5111,-67.264,-2.9201,77.605,2.79E+07
5112,-4.1923,29.454,60.001,4.46E+08
5113,7.0573,21.407,70.79,3.02E+08
5114,-45.576,-3.387,78.315,5.10E+07
5115,-48.519,-8.8864,81.96,3.40E+07
5116,23.351,-27.471,26.176,3.33E+08
5117,59.653,-19.357,19.376,6.75E+07
5118,61.929,-12.351,8.1929,9.82E+07
5119,7.0553,9.9581,72.301,2.53E+08
5120,-6.2138,9.9031,71.514,1.72E+08
5121,1.5378,32.34,55.323,2.15E+08
5122,7.685,25.998,66.103,4.37E+08
5123,-67.069,-8.3252,79.227,2.30E+07
5124,63.667,-14.362,18.29,6.54E+07
5125,59.751,-0.2002,17.616,4.94E+07
5126,55.743,1.8453,19.047,1.10E+08
5127,58.451,4.6415,5.6652,4.62E+07
5128,10.086,28.949,56.772,6.12E+08
5129,-9.9333,32.7,53.347,4.36E+08
5130,-5.7812,28.913,65.44,4.14E+08
5131,6.0994,16.807,74.656,2.52E+08
5132,-54.628,-8.0362,83.545,2.72E+07
5133,25.644,-40.32,22.94,1.44E+08
5134,61.844,6.8727,12.165,6.51E+07
5135,-65.252,-3.8141,82.92,2.05E+07
5136,-9.0341,28.087,59.03,6.61E+08
5137,-3.4663,34.509,53.075,1.75E+08
5138,65.838,-13.647,7.0595,1.19E+08
5139,67.609,-8.4905,17.846,5.52E+07
5140,8.9141,32.086,50.84,2.94E+08
5141,-4.0095,20.513,77.542,9.13E+07
5142,1.3532,37.287,53.091,6.66E+07
5143,-55.536,-4.429,85.388,2.70E+07
5144,68.036,-5.8173,8.3186,8.46E+07
5145,18.763,13.015,-48.537,2.16E+08
5146,-8.0855,19.686,75.851,1.94E+08
5147,-5.0659,32.448,70.199,1.87E+08
5148,-9.3896,29.129,67.963,4.72E+08
5149,8.291,30.01,73.526,2.42E+08
5150,6.9107,20.719,76.094,2.50E+08
5151,-58.509,-8.1498,85.906,2.28E+07
5152,-64.664,-8.6545,83.685,1.94E+07
5153,-8.7885,37.701,52.672,2.50E+08
5154,61.969,8.3478,19.439,1.04E+08
5155,66.591,7.9811,8.8743,2.59E+07
5156,5.4176,21.991,79.353,1.91E+08
5157,72.92,0.43204,18.152,3.33E+07
5158,8.6539,32.702,71.014,2.98E+08
5159,9.9454,36.745,54.749,2.98E+08
5160,-1.0605,42.098,54.506,6.97E+07
5161,5.8666,43.931,54.722,7.88E+07
5162,0.4964,45.692,56.047,4.93E+07
5163,3.0812,25.732,81.266,1.07E+08
5164,71.654,-4.8392,18.167,5.53E+07
5165,-7.3951,25.635,80.323,1.26E+08
5166,-10.973,41.155,52.735,2.23E+08
5167,-8.1083,37.263,76.607,9.60E+07
5168,5.2981,37.927,73.277,1.15E+08
5169,73.1,-5.7634,7.7835,1.13E+08
5170,65.255,12.247,19.564,9.41E+07
5171,-9.067,36.821,72.546,1.38E+08
5172,7.256,26.292,82.683,1.99E+08
5173,78.079,-1.317,19.442,6.59E+07
5174,68.157,14.283,8.1586,4.05E+07
5175,9.5005,39.323,71.678,1.99E+08
5176,-4.7673,45.218,56.651,7.49E+07
5177,9.7262,45.148,55.442,9.59E+07
5178,4.598,47.131,57.827,4.67E+07
5179,76.599,-1.6638,8.2342,1.04E+08
5180,-9.5262,46.708,56.418,9.44E+07
5181,-8.9681,43.449,69.662,8.70E+07
5182,-6.6869,28.095,84.569,8.36E+07
5183,75.486,7.578,17.436,2.05E+07
5184,3.1219,30.865,87.284,8.08E+07
5185,1.8095,44.865,71.508,5.13E+07
5186,70.185,16.503,18.019,7.04E+07
5187,10.156,45.567,70.139,1.18E+08
5188,-3.5795,47.875,60.155,4.31E+07
5189,9.3542,47.603,60.555,5.12E+07
5190,-10.413,48.337,65.835,4.74E+07
5191,7.1256,43.54,78.367,6.05E+07
5192,-9.4297,48.726,62.082,4.98E+07
5193,0.51612,48.423,61.574,2.95E+07
5194,-8.0892,47.548,74.534,4.46E+07
5195,71.731,17.665,8.3336,3.44E+07
5196,3.4619,48.247,65.295,3.63E+07
5197,-4.8263,47.123,69.368,4.68E+07
5198,-2.9108,48.203,79.656,3.20E+07
5199,-10.092,48.151,71.492,6.69E+07
5200,-8.2468,31.409,89.362,7.25E+07
5201,7.7114,31.039,91.041,1.18E+08
5202,73.416,19.887,18.555,6.38E+07
5203,81.42,5.9542,17.622,4.76E+07
5204,4.2093,47.785,86.035,3.20E+07
5205,9.4007,45.959,73.603,9.58E+07
5206,7.3046,48.034,80.239,3.44E+07
5207,81.868,6.2323,9.3433,7.49E+07
5208,-8.0811,31.641,97.331,2.72E+07
5209,9.3407,48.632,65.137,4.72E+07
5210,7.3661,32.097,96.889,7.86E+07
5211,84.978,10.044,17.5,4.30E+07
5212,-7.2497,48.407,80.368,2.05E+07
5213,-6.7774,44.841,88.642,3.66E+07
5214,10.261,48.807,71.181,7.35E+07
5215,76.74,23.62,18.319,5.52E+07
5216,85.306,9.9229,9.2304,6.85E+07
5217,6.767,48.114,91.919,4.15E+07
5218,77.321,23.581,8.3081,2.70E+07
5219,-7.0427,49.94,89.616,2.53E+07
5220,-6.268,44.711,96.791,2.81E+07
5221,81.075,27.485,17.868,4.30E+07
5222,85.06,20.051,18.458,2.10E+07
5223,77.65,26.822,7.1982,3.04E+07
5224,-7.9207,33.856,102.88,1.78E+07
5225,7.4423,34.245,103.17,5.08E+07
5226,89.94,16.878,18.413,3.08E+07
5227,6.5015,50.183,98.376,4.48E+07
5228,8.056,43.498,104.81,5.74E+07
5229,84.028,30.932,19.689,4.31E+07
5230,-8.2582,49.928,93.686,2.83E+07
5231,-9.8605,43.811,106.43,2.07E+07
5232,86.142,26.437,18.614,2.78E+07
5233,80.824,29.476,7.4353,2.37E+07
5234,-8.1884,33.352,107.59,1.28E+07
5235,-7.7166,49.834,100.44,3.05E+07
5236,92.992,16.142,9.0796,6.34E+07
5237,3.1133,51.263,104.21,4.70E+07
5238,5.57E-02,40.674,109.76,2.16E+07
5239,8.4016,34.044,108.41,2.88E+07
5240,86.939,33.926,17.225,2.98E+07
5241,87.721,26.285,7.6999,2.36E+07
5242,91.035,22.699,7.3522,4.03E+07
5243,-9.0392,33.31,112.08,9.81E+06
5244,8.063,51.047,102.72,4.86E+07
5245,-8.4584,48.92,105.16,2.53E+07
5246,94.245,17.935,20.381,3.25E+07
5247,1.5007,37.568,114.92,7.28E+06
5248,9.305,48.633,107.61,4.39E+07
5249,-4.7603,52.104,109.06,3.30E+07
5250,8.917,33.571,111.49,1.54E+07
5251,86.376,33.342,8.3876,1.76E+07
5252,4.9526,52.67,109.79,3.31E+07
5253,89.204,38.436,17.578,2.79E+07
5254,84.08,35.601,5.2493,1.68E+07
5255,95.781,19.845,7.685,5.94E+07
5256,97.376,21.661,16.176,3.83E+07
5257,-8.8486,40.218,112.18,1.19E+07
5258,0.35318,53.456,111.66,2.87E+07
5259,5.7747,35.834,116.01,6.69E+06
5260,9.8449,52.674,110.12,2.68E+07
5261,9.4738,37.734,112.08,3.53E+07
5262,94.516,29.608,17.547,2.35E+07
5263,100.65,23.44,18.181,3.38E+07
5264,-6.7391,36.666,115.31,7.41E+06
5265,1.8515,36.691,120.57,4.49E+06
5266,-9.8118,52.837,107.64,2.55E+07
5267,90.47,37.503,8.537,1.49E+07
5268,100.07,23.163,9.1666,5.03E+07
5269,99.752,19.742,20.592,3.80E+07
5270,10.237,53.603,107.17,2.82E+07
5271,9.898,53.549,114.92,1.69E+07
5272,-4.7908,54.688,113.93,1.73E+07
5273,-9.022,54.318,111.7,1.82E+07
5274,-10.558,35.289,118.07,4.70E+06
5275,6.5971,36.741,120.86,4.14E+06
5276,-0.92063,56.018,115.98,1.30E+07
5277,6.1605,55.98,116.69,1.16E+07
5278,10.455,35.297,117.49,5.63E+06
5279,93.25,41.637,16.153,1.23E+07
5280,103.09,26.959,8.5714,4.41E+07
5281,103.35,27.899,17.98,2.50E+07
5282,-7.0142,37.041,121.48,2.94E+06
5283,9.9899,56.049,117.51,8.67E+06
5284,3.5662,40.005,125.21,2.00E+06
5285,-9.6554,55.904,118.6,5.66E+06
5286,-0.90653,40.909,126.47,1.33E+06
5287,94.74,43.354,9.4797,9.30E+06
5288,95.089,45.048,18.336,9.77E+06
5289,99.275,37.15,9.0036,3.67E+07
5290,8.3456,39.362,124.8,2.11E+06
5291,-4.3387,54.906,121.4,5.06E+06
5292,105.64,30.158,10.964,2.81E+07
5293,-9.8682,38.158,125.11,1.10E+06
5294,5.7144,54.234,122.71,4.48E+06
5295,98.773,41.242,17.949,2.35E+07
5296,98.513,41.295,11.612,2.68E+07
5297,106.62,30.452,18.567,2.02E+07
5298,9.802,54.085,124.06,3.19E+06
5299,6.0615,44.501,127.15,1.49E+06
5300,-4.8299,43.887,127,1.59E+06
5301,0.59635,46.223,127.82,1.36E+06
5302,-8.6474,52.652,124.94,3.10E+06
5303,95.95,47.819,10.831,7.56E+06
5304,-9.7685,42.036,126.97,1.18E+06
5305,0.46882,53.721,123.63,3.68E+06
5306,9.544,48.019,127.07,1.61E+06
5307,99.687,48.075,18.014,1.40E+07
5308,106.93,34.701,17.931,1.82E+07
5309,96.5,51.367,17.722,8.41E+06
5310,96.5,51.367,9.3039,6.73E+06
5311,109.53,31.333,8.9624,3.14E+07
5312,108.97,35.407,9.5662,2.97E+07
5313,-9.1151,46.155,127.98,1.31E+06
5314,4.9174,50.369,126.27,2.31E+06
5315,10.067,44.315,128.34,9.02E+05
5316,-4.4853,48.639,127.18,1.87E+06
5317,101.67,53.556,17.774,1.17E+07
5318,110.24,33.021,17.662,2.42E+07
5319,111.38,37.499,18.663,2.67E+07
5320,113.7,34.788,8.9607,2.50E+07
5321,100.51,53.152,8.3402,1.38E+07
5322,114.13,33.862,17.756,1.65E+07
5323,116.67,39.201,9.322,1.24E+07
5324,109.83,54.188,18.009,7.96E+06
5325,105.72,55.042,9.5622,1.01E+07
5326,105.72,56.248,18.043,8.35E+06
5327,115.88,36.151,13.034,1.49E+07
5328,116.47,41.417,18.377,1.29E+07
5329,108.87,58.098,18.622,9.14E+06
5330,118.33,45.458,9.3173,8.72E+06
5331,114.45,53.689,17.891,1.03E+07
5332,111.74,52.222,7.8578,9.49E+06
5333,119.99,39.505,17.663,4.28E+06
5334,120.36,41.326,9.0883,3.54E+06
5335,111.08,55.989,8.5201,6.51E+06
5336,120.01,49.589,8.5155,7.83E+06
5337,119.28,44.524,17.857,5.84E+06
5338,120.68,48.434,18.449,4.80E+06
5339,115.9,53.729,8.3369,8.94E+06
5340,118,53.124,18.864,8.16E+06
5341,117.05,51.819,13.567,1.02E+07
5342,113.64,54.221,12.922,8.92E+06
5343,119.38,48.655,13.522,7.92E+06
5344,117.37,43.378,13.58,9.12E+06
5345,112.49,33.061,13.584,2.38E+07
5346,104.64,57.222,13.281,8.00E+06
5347,100.91,54.217,13.168,1.15E+07
5348,-3.7499,52.356,125.37,2.73E+06
5349,0.2387,51.058,126.26,2.14E+06
5350,-10.113,50.054,127.95,1.81E+06
5351,105.16,33.433,8.9518,2.18E+07
5352,95.937,48.278,14.461,9.02E+06
5353,103.06,33.804,17.711,2.44E+07
5354,106.68,35.646,13.73,2.02E+07
5355,100.34,37.023,18.394,3.57E+07
5356,108.24,30.812,14.528,2.61E+07
5357,100.31,32.02,9.2497,2.88E+07
5358,92.305,41.208,12.103,1.12E+07
5359,-9.7889,56.149,122.19,3.83E+06
5360,-10.944,35.976,121.01,2.45E+06
5361,101.59,25.548,13.401,3.75E+07
5362,94.032,37.693,18.393,2.07E+07
5363,95.506,23.934,8.5531,4.13E+07
5364,92.263,33.444,9.2291,2.30E+07
5365,-1.0156,37.713,124.03,2.24E+06
5366,95.386,24.373,18.288,2.45E+07
5367,90.17,29.194,18.11,2.30E+07
5368,94.994,18.362,13.602,5.05E+07
5369,3.806,47.447,108.05,4.03E+07
5370,3.6173,55.032,113.84,1.95E+07
5371,85.16,33.603,13.187,2.84E+07
5372,-5.4954,47.262,108.4,2.80E+07
5373,-0.2076,35.801,111.06,9.79E+06
5374,-4.7285,35.495,110.94,4.91E+06
5375,86.469,20.624,7.997,3.21E+07
5376,5.213,41.171,109.3,4.14E+07
5377,-2.7328,51.34,104.07,4.32E+07
5378,1.2003,50.787,99.641,4.77E+07
5379,89.289,12.603,7.9498,7.13E+07
5380,-6.1865,50.197,96.2,3.27E+07
5381,-8.6818,52.6,103.84,3.13E+07
5382,-7.8496,38.011,105.87,1.43E+07
5383,-6.1985,39.322,100.75,1.89E+07
5384,8.5221,38.805,106.64,5.47E+07
5385,6.1735,39.234,100.36,5.98E+07
5386,6.3258,44.705,96.835,5.61E+07
5387,2.6587,49.102,94.183,3.98E+07
5388,7.4663,46.804,101.28,5.52E+07
5389,89.096,13.243,17.857,4.25E+07
5390,2.4987,34.27,100.24,3.48E+07
5391,81.937,15.124,18.018,2.04E+07
5392,80.85,21.853,18.065,3.27E+07
5393,78.857,25.596,14.387,4.05E+07
5394,-5.4129,38.905,94.844,2.98E+07
5395,-7.416,43.536,100.68,2.50E+07
5396,74.96,20.312,8.6477,2.89E+07
5397,80.245,18.948,7.6594,2.10E+07
5398,80.905,12.401,9.1433,4.08E+07
5399,85.015,8.3457,13.423,6.34E+07
5400,-6.7243,43.943,84.306,4.08E+07
5401,-6.8888,40.917,87.544,4.99E+07
5402,-1.2995,48.179,87.889,3.03E+07
5403,-7.5563,48.365,85.844,2.47E+07
5404,2.845,33.337,94.583,5.17E+07
5405,-6.8356,33.435,93.493,3.85E+07
5406,-2.2674,34.412,96.312,1.59E+07
5407,75.883,4.2591,9.3618,5.87E+07
5408,83.02,4.5713,13.539,7.57E+07
5409,3.8509,46.97,75.802,5.04E+07
5410,5.9489,40.807,88.403,6.75E+07
5411,73.942,18.826,13.056,4.13E+07
5412,75.246,14.463,17.731,3.50E+07
5413,7.8667,31.365,87.226,1.40E+08
5414,-1.0742,31.528,91.034,2.83E+07
5415,-6.537,36.168,87.153,6.18E+07
5416,-4.1291,47.75,75.259,3.85E+07
5417,6.0852,46.662,69.341,6.97E+07
5418,76.265,14.696,8.4734,1.95E+07
5419,-5.2609,47.977,64.629,3.91E+07
5420,6.8607,36.876,79.726,1.05E+08
5421,0.6068,47.097,68.98,4.08E+07
5422,-8.72E-02,40.043,73.047,4.14E+07
5423,69.075,7.6535,18.091,4.26E+07
5424,78.24,11.566,17.481,2.00E+07
5425,-7.1865,30.927,79.522,1.15E+08
5426,-1.6024,29.183,86.494,2.87E+07
5427,-10.04,42.807,74.119,8.25E+07
5428,76.019,-2.7459,12.539,9.10E+07
5429,9.337,40.285,74.96,1.21E+08
5430,65.319,11.382,8.0852,4.49E+07
5431,68.761,15.427,12.861,5.75E+07
5432,7.4597,30.955,81.645,1.62E+08
5433,70.883,-6.18E-02,8.5847,6.21E+07
5434,-6.8469,39.09,81.895,6.65E+07
5435,-6.4752,21.861,79.4,1.07E+08
5436,-7.2704,23.871,74.567,1.74E+08
5437,-3.3815,23.777,80.805,3.81E+07
5438,73.248,-5.7316,13.241,9.10E+07
5439,2.7445,21.996,79.417,1.29E+08
5440,10.63,34.953,74.056,2.10E+08
5441,3.901,32.565,71.25,1.86E+08
5442,68.336,2.8231,17.982,2.35E+07
5443,72.854,4.5117,18.859,1.97E+07
5444,66.494,3.2449,8.87,2.43E+07
5445,70.95,5.8964,9.0707,2.82E+07
5446,-4.0006,38.782,53.237,1.38E+08
5447,8.1574,27.88,70.181,3.34E+08
5448,-4.2987,18.447,74.751,1.51E+08
5449,67.933,-10.807,9.6807,1.03E+08
5450,64.311,-8.5814,7.9551,8.94E+07
5451,6.1257,38.979,52.885,1.16E+08
5452,-3.6101,21.586,79.959,6.18E+07
5453,68.145,-11.222,14.395,8.52E+07
5454,67.052,-3.1455,18.128,2.34E+07
5455,64.782,-14.252,11.704,9.34E+07
5456,-2.5445,29.931,51.85,2.00E+08
5457,-10.027,31.63,55.909,5.94E+08
5458,64.013,9.4024,15.105,7.37E+07
5459,-0.75075,29.938,67.253,2.60E+08
5460,-7.6358,25.477,62.884,4.40E+08
5461,5.7521,28.699,60.93,5.24E+08
5462,55.326,0.68527,14.32,8.18E+07
5463,56.407,-4.5543,17.882,3.42E+07
5464,59.484,4.6877,16.107,8.84E+07
5465,59.517,-11.197,18.174,4.40E+07
5466,2.945,28.256,52.075,2.12E+08
5467,-7.0486,13.646,73.256,1.83E+08
5468,6.8409,12.981,73.982,2.92E+08
5469,57.565,-18.874,13.545,7.99E+07
5470,55.29,-20.725,19.358,7.32E+07
5471,1.2497,19.431,74.339,2.00E+08
5472,1.2732,29.594,59.677,3.55E+08
5473,58.129,3.1883,11.528,6.82E+07
5474,-7.3992,18.683,67.389,2.98E+08
5475,-7.3392,23.678,67.917,3.09E+08
5476,7.5584,20.009,66.615,3.81E+08
5477,7.5503,18.324,58.266,3.79E+08
5478,7.8216,23.841,56.561,4.47E+08
5479,50.089,-6.8839,17.851,4.31E+07
5480,60.97,0.77882,7.6317,2.70E+07
5481,50.852,-12.743,17.891,4.28E+07
5482,2.2766,14.66,70.111,2.96E+08
5483,47.879,-2.6177,12.817,9.01E+07
5484,-7.2311,20.954,55.052,3.99E+08
5485,3.0414,20.92,51.017,3.16E+08
5486,27.173,-6.7201,22.844,2.97E+08
5487,34.236,-23.542,21.736,3.59E+08
5488,57.294,-13.737,8.0396,9.01E+07
5489,-45.27,-4.2589,70.19,5.87E+07
5490,-5.6885,20.385,50.207,3.33E+08
5491,7.1138,-2.949,68.804,9.41E+07
5492,-0.19346,10.869,67.813,3.44E+08
5493,-6.3769,8.0168,63.496,2.24E+08
5494,6.86,13.132,60.659,2.86E+08
5495,-8.6899,-7.3725,67.859,4.31E+07
5496,51.319,-21.216,19.403,8.50E+07
5497,46.537,-14.349,18.846,5.49E+07
5498,40.753,-12.177,18.48,6.65E+07
5499,50.845,-10.898,6.2197,5.79E+07
5500,7.556,9.9625,52.267,2.22E+08
5501,0.42335,14.315,49.055,3.85E+08
5502,7.7467,16.852,52.233,2.89E+08
5503,37.604,-3.317,16.197,1.44E+08
5504,32.97,-7.9319,20.618,1.76E+08
5505,37.645,-7.6397,19.707,1.19E+08
5506,34.76,-17.649,19.524,1.36E+08
5507,27.304,-17.171,22.906,1.73E+08
5508,6.1689,-0.1946,63.038,1.65E+08
5509,0.13827,1.6591,63.593,3.10E+08
5510,30.873,-20.302,18.084,1.30E+08
5511,37.56,-23.462,12.782,2.09E+08
5512,47.834,-16.977,4.1724,6.95E+07
5513,48.123,-20.899,11.275,8.80E+07
5514,52.805,-19.533,10.895,8.32E+07
5515,-50.454,-4.8963,62.088,5.17E+07
5516,-42.475,-4.5852,64.831,4.92E+07
5517,-6.4533,15.634,54.097,2.93E+08
5518,-6.1839,2.5511,66.348,1.85E+08
5519,-7.2992,2.5351,62.678,1.78E+08
5520,11.307,-19.792,33.06,1.45E+08
5521,12.411,-19.806,36.783,1.63E+08
5522,1.275,-15.873,61.296,4.18E+07
5523,39.202,-6.1252,8.3213,5.88E+07
5524,42.333,-3.3007,13.359,1.04E+08
5525,7.7587,-6.5657,60.948,8.46E+07
5526,6.8525,0.92747,56.545,1.79E+08
5527,5.085,-12.886,63.183,3.46E+07
5528,33.412,-10.357,12.537,9.38E+07
5529,34.125,-16.759,10.812,1.05E+08
5530,34.224,-21.139,9.2833,1.27E+08
5531,-3.5281,9.5577,47.844,4.00E+08
5532,-7.164,-1.305,58.526,2.49E+08
5533,6.3596,8.8932,48.204,3.21E+08
5534,3.1841,4.1893,46.455,4.01E+08
5535,7.1041,-5.9812,51.338,1.73E+08
5536,7.0579,-11.33,58.471,8.47E+07
5537,-2.4811,-18.914,54.245,6.23E+07
5538,-3.0881,-16.847,59.31,3.65E+07
5539,-8.0525,-12.612,53.985,1.44E+08
5540,9.5531,-9.7192,34.099,1.39E+08
5541,8.5069,-15.171,34.789,8.25E+07
5542,4.3567,-20.815,49.154,8.17E+07
5543,6.1182,-18.982,53.898,5.78E+07
5544,-53.554,-4.1477,57.527,5.46E+07
5545,9.4004,-7.7989,39.074,2.29E+08
5546,0.2316,-8.6066,61.895,1.61E+08
5547,35.226,-21.139,4.0787,1.31E+08
5548,43.835,-17.629,1.5432,7.10E+07
5549,7.4951,4.0638,51.048,2.41E+08
5550,8.5056,-16.831,46.392,1.15E+08
5551,-48.168,-8.1712,64.199,5.34E+07
5552,-46.136,-4.487,61.795,5.07E+07
5553,-43.297,-8.246,66.746,5.40E+07
5554,4.8715,-24.692,35.462,1.40E+08
5555,-7.6933,3.1002,51.167,4.30E+08
5556,-8.7596,-1.4342,49.985,5.23E+08
5557,35.908,-21.732,-6.3147,1.36E+08
5558,7.419,-4.102,45.314,2.29E+08
5559,-3.3974,-21.992,44.865,1.39E+08
5560,40.492,-22.696,-0.34378,9.66E+07
5561,36.02,-20.889,-1.4412,1.38E+08
5562,-4.5351,4.89,45.845,4.56E+08
5563,-30.537,-7.8001,55.484,6.12E+07
5564,-1.878,-22.073,40.5,1.62E+08
5565,4.7834,-7.6454,35.062,1.37E+08
5566,5.8888,0.21662,43.176,3.40E+08
5567,-4.3036,0.3016,42.533,2.95E+08
5568,-8.3234,-16.442,38.354,1.47E+08
5569,-13.167,-3.5159,43.782,4.03E+08
5570,1.7267,-20.416,35.917,8.38E+07
5571,-2.5917,-11.748,35.507,1.47E+08
5572,-39.22,-8.6312,59.612,6.28E+07
5573,-46.674,-3.9278,53.394,6.99E+07
5574,-38.472,-3.9913,55.569,7.36E+07
5575,-42.597,-8.3518,50.823,5.78E+07
5576,-43.247,-3.4243,55.867,8.48E+07
5577,-29.849,-8.107,51.392,8.33E+07
5578,-36.651,-3.3616,51.007,9.18E+07
5579,-34.039,-3.6477,57.622,8.38E+07
5580,-24.331,-7.9113,46.443,1.87E+08
5581,-19.606,-4.1228,43.574,3.31E+08
5582,-19.83,-8.4698,44.325,3.16E+08
5583,35.755,-8.3284,-9.7691,1.42E+08
5584,34.179,-15.073,-12.056,1.35E+08
5585,-40.228,-3.7294,43.072,7.90E+07
5586,-39.094,-7.8172,46.813,6.00E+07
5587,-44.047,-3.36,45.449,8.54E+07
5588,-44.67,-8.4895,47.069,6.56E+07
5589,-49.971,-2.947,44.252,8.62E+07
5590,36.513,-8.49,-17.246,1.64E+08
5591,31.949,-12.091,-17.007,1.26E+08
5592,-12.216,-10.996,37.587,3.58E+08
5593,-34.732,-4.5998,42.965,6.84E+07
5594,-36.371,-7.8265,51.642,5.59E+07
5595,35.573,-5.348,-24.161,1.62E+08
5596,36.783,-3.5064,-12.693,1.72E+08
5597,33.689,-17.247,-22.883,1.12E+08
5598,33.671,-16.649,-28.418,9.54E+07
5599,-25.39,-8.8567,36.944,2.69E+08
5600,-17.984,-3.8178,37.042,3.35E+08
5601,-28.253,-4.1604,38.04,1.58E+08
5602,-25.777,-8.3814,41.53,2.27E+08
5603,-23.742,-3.744,43.594,2.17E+08
5604,-42.397,-8.2489,42.915,6.90E+07
5605,38.33,-18.241,-49.53,7.95E+06
5606,36.89,-9.6317,-42.46,4.35E+07
5607,37.227,-2.3638,-39.961,1.23E+08
5608,36.238,-12.917,-44.4,3.07E+07
5609,-38.922,-8.9228,36.016,1.13E+08
5610,-38.086,-3.3976,34.789,1.22E+08
5611,27.633,-8.7095,-51.843,7.54E+07
5612,23.125,-11.305,-55.444,6.32E+07
5613,37.03,-6.5325,-29.192,1.76E+08
5614,30.836,-5.2441,-30.9,1.49E+08
5615,33.063,-8.387,-28.562,1.23E+08
5616,31.258,-17.048,-17.891,1.28E+08
5617,29.217,-16.824,-27.408,1.03E+08
5618,28.602,-10.702,-20.937,1.25E+08
5619,36.413,-17.087,-37.168,4.98E+07
5620,-32.584,-4.7194,34.503,1.42E+08
5621,-32.292,-8.7394,30.796,1.99E+08
5622,-30.923,-7.9141,38.647,1.69E+08
5623,-26.323,-9.2435,30.774,2.50E+08
5624,-21.675,-10.493,34.383,3.56E+08
5625,14.285,22.544,-55.803,5.69E+07
5626,9.113,27.309,-46.987,6.36E+07
5627,31.621,-8.2676,-48.477,6.42E+07
5628,30.264,-3.9655,-25.854,1.47E+08
5629,31.362,-9.0155,-37.77,6.24E+07
5630,27.819,-16.166,-45.374,5.07E+07
5631,22.131,-15.36,-51.351,6.12E+07
5632,25.519,-3.7444,-41.475,1.67E+08
5633,20.382,-12.408,-29.509,1.25E+08
5634,25.233,-17.049,-25.543,1.27E+08
5635,-24.974,-7.391,25.807,1.99E+08
5636,26.776,-4.4314,-53.64,1.08E+08
5637,21.578,-3.5648,-53.437,1.78E+08
5638,24.561,-17.184,-31.53,9.41E+07
5639,23.208,-16.301,-38.345,8.09E+07
5640,22.944,-16.683,-46.659,5.93E+07
5641,-35.716,-3.6429,30.346,1.62E+08
5642,12.438,12.629,-56.137,1.72E+08
5643,21.534,-7.6316,-27.685,1.34E+08
5644,19.552,-17.905,-34.653,9.90E+07
5645,15.41,-15.687,-51.827,8.39E+07
5646,11.367,-17.151,-44.472,7.33E+07
5647,-29.917,-15.975,18.809,2.03E+08
5648,16.734,4.5466,-52.737,2.56E+08
5649,20.915,-3.1697,-44.714,2.11E+08
5650,-34.907,-8.6646,15.419,2.34E+08
5651,-27.568,-8.0427,21.959,1.75E+08
5652,16.825,5.7681,-46.837,2.57E+08
5653,20.406,-1.8545,-57.813,2.05E+08
5654,14.075,-2.9098,-57.043,2.37E+08
5655,12.366,-10.363,-54.816,1.33E+08
5656,14.739,-8.1457,-33.284,1.22E+08
5657,15.183,-3.7622,-36.045,1.62E+08
5658,-33.451,-12.826,14.958,2.17E+08
5659,11.388,10.25,-50.459,2.59E+08
5660,7.9523,-0.63764,-42.771,1.64E+08
5661,9.0271,-15.72,-35.197,1.07E+08
5662,-15.944,24.88,-45.368,4.94E+07
5663,-9.3908,26.448,-59.815,3.56E+07
5664,10.702,0.57925,-55.954,3.04E+08
5665,8.0268,5.8084,-53.568,3.62E+08
5666,10.158,-18.25,-38.138,9.68E+07
5667,15.01,-16.194,-42.065,8.42E+07
5668,-33.599,-30.076,9.5464,1.51E+08
5669,-14.859,22.756,-49.097,6.11E+07
5670,7.0824,-27.258,-34.194,1.18E+08
5671,3.9229,-1.8128,-56.05,3.07E+08
5672,4.2778,-9.5304,-49.501,1.57E+08
5673,2.8123,-6.2004,-56.763,2.55E+08
5674,7.2061,-9.4069,-35.408,8.85E+07
5675,1.1994,-16.064,-35.864,1.04E+08
5676,-11.173,11.025,-53.948,2.34E+08
5677,-7.10E-02,-1.1228,-42.772,1.29E+08
5678,-11.827,18.686,-54.623,1.27E+08
5679,-8.6441,3.7836,-45.33,2.14E+08
5680,-6.5664,-0.80494,-55.617,2.71E+08
5681,-17.754,-7.3763,-58.259,9.88E+07
5682,-12.533,-3.4449,-56.242,1.92E+08
5683,-16.245,-6.8592,-51.661,1.98E+08
5684,-3.8269,-17.87,-40.03,1.14E+08
5685,-3.5474,-14.291,-35.41,9.04E+07
5686,-9.6276,6.8433,-49.52,2.61E+08
5687,-2.8143,-9.1462,-51.998,1.78E+08
5688,2.2643,-7.1967,-36.58,6.33E+07
5689,-14.211,-15.45,-48.722,1.20E+08
5690,-7.4021,5.4204,-58.068,4.06E+08
5691,-4.4468,3.2959,-44.595,1.92E+08
5692,-6.5221,-18.081,-41.35,1.42E+08
5693,-15.218,3.6988,-49.596,2.57E+08
5694,-16.243,-2.4975,-47.117,3.59E+08
5695,-18.021,-13.592,-36.125,1.80E+08
5696,-14.218,-3.7354,-36.769,1.73E+08
5697,-14.831,-20.489,-33.286,1.43E+08
5698,-21.104,-18.055,-27.959,2.30E+08
5699,-3.6549,-10.746,-44.542,1.46E+08
5700,-8.2659,-13.332,-43.531,1.24E+08
5701,-7.9561,-2.1419,-41.356,1.24E+08
5702,-12.483,-1.996,-41.372,1.58E+08
5703,-19.214,-3.5664,-34.7,3.04E+08
5704,-12.291,-8.4511,-33.942,1.22E+08
5705,-23.015,-3.1149,-38.077,3.59E+08
5706,-33.28,-7.2741,-13.948,1.10E+08
5707,-35.912,-9.8904,-17.511,1.55E+08
5708,-35.002,-7.1705,-9.6118,1.06E+08
5709,-30.883,-7.2383,-18.628,1.26E+08
5710,-25.73,-3.8018,-30.575,2.19E+08
5711,-22.911,-14.74,-28.025,2.54E+08
5712,-33.384,-9.8747,-22.024,1.65E+08
5713,-28.345,-9.6575,-27.601,1.98E+08
5714,-33.146,-3.6395,-25.139,1.25E+08
5715,-31.037,-3.9972,-33.151,1.46E+08
5716,-39.229,-9.0915,-21.251,1.05E+08
5717,-29.878,-8.498,-41.369,1.03E+08
5718,-26.503,-8.9048,-37.51,1.97E+08
5719,-32.863,-4.4338,-40.448,7.49E+07
5720,-43.55,-4.0385,-31.728,3.35E+07
5721,-37.225,-8.266,-28.827,8.65E+07
5722,-35.745,-3.9904,-28.724,1.01E+08
5723,-37.672,-8.4417,-45.008,1.22E+07
5724,-37.244,-7.8093,-40.705,3.10E+07
5725,-33.189,-8.4904,-31.948,1.17E+08
5726,-40.718,-8.7649,-33.356,3.65E+07
5727,-37.942,-3.6247,-42.759,2.45E+07
5728,-76.72,-8.7753,-72.945,8.14E+05
5729,-42.352,-8.7842,-28.241,4.34E+07
5730,-41.452,-3.3762,-53.303,6.75E+06
5731,-49.639,-9.6209,-28.182,8.34E+06
5732,-40.316,-9.3664,-47.99,7.40E+06
5733,-44.811,-8.1804,-49.622,7.12E+06
5734,-47.088,-8.9312,-35.133,6.57E+06
5735,-46.191,-5.0471,-41.299,7.52E+06
5736,-42.363,-8.7848,-43.909,8.00E+06
5737,-45.104,-4.5919,-36.206,1.65E+07
5738,-52.676,-3.4424,-32.914,5.78E+06
5739,-48.047,-8.7664,-59.629,2.80E+06
5740,-49.151,-8.6762,-46.842,7.36E+06
5741,-54.361,-8.6513,-37.695,7.89E+06
5742,-51.415,-3.8316,-62.983,1.30E+06
5743,-52.467,-2.9703,-51.836,3.11E+06
5744,-47.752,-4.2043,-46.703,5.11E+06
5745,-54.118,-4.4971,-41.656,4.55E+06
5746,-57.802,-3.7213,-58.141,8.05E+05
5747,-54.156,-8.4939,-52.476,4.72E+06
5748,-53.119,-4.5585,-59.13,1.75E+06
5749,-60.636,-3.9506,-39.261,6.12E+06
5750,-70.843,-4.5086,-54.948,1.37E+06
5751,-66.878,-4.0936,-46.32,2.91E+06
5752,-63.563,-9.4943,-41.59,5.36E+06
5753,-57.394,-9.119,-48.151,5.60E+06
5754,-57.384,-4.0327,-51.88,2.70E+06
5755,-62.827,-7.9024,-48.581,3.65E+06
5756,-61.522,-4.1498,-48.558,2.99E+06
5757,-56.506,-8.1486,-42.612,6.53E+06
5758,-50.352,-4.5825,-37.216,4.37E+06
5759,-51.4,-3.5673,-45.177,4.33E+06
5760,-41.005,-4.0594,-35.418,3.73E+07
5761,-47.82,-3.1811,-32.301,1.40E+07
5762,-45.529,-8.6837,-31.602,1.60E+07
5763,-38.163,-4.4377,-38.635,4.11E+07
5764,-36.678,-4.0535,-32.998,7.90E+07
5765,-36.305,-10.806,-8.4814,1.80E+08
5766,-13.037,-13.429,-34.484,1.29E+08
5767,-3.9815,-1.2534,-42.491,1.29E+08
5768,2.3814,-11.035,-44.664,1.45E+08
5769,-16.896,-11.714,-48.147,2.14E+08
5770,-5.4599,-9.92,-49.007,1.72E+08
5771,-8.5012,-15.048,-35.527,1.01E+08
5772,-11.421,1.6225,-57.317,2.64E+08
5773,-13.537,4.1751,-45.087,2.06E+08
5774,8.43E-02,-0.42,-57.223,3.47E+08
5775,7.1052,0.67236,-57.2,3.69E+08
5776,7.3726,6.3594,-48.893,3.03E+08
5777,12.169,-16.278,-33.162,1.16E+08
5778,10.842,-3.4471,-36.928,1.23E+08
5779,10.823,-5.8652,-34.01,1.02E+08
5780,12.582,-12.031,-33.958,1.09E+08
5781,-30.112,-10.326,25.947,2.24E+08
5782,15.244,-16.428,-47.435,7.51E+07
5783,15.82,-11.978,-54.969,1.10E+08
5784,12.334,17.323,-55.812,1.22E+08
5785,20.724,-15.848,-42.258,7.64E+07
5786,16.974,0.93793,-49.466,2.82E+08
5787,-28.954,-8.8814,34.363,2.33E+08
5788,-32.531,-3.9995,39.923,1.02E+08
5789,26.828,-14.21,-53.583,4.00E+07
5790,-23.469,-3.79,38.2,2.32E+08
5791,-13.63,-2.9825,38.607,4.15E+08
5792,31.029,-11.605,-27.957,1.15E+08
5793,-35.649,-8.344,56.257,6.18E+07
5794,-31.273,-3.6149,45.083,9.33E+07
5795,35.996,-10.521,-20.938,1.41E+08
5796,34.413,-16.983,-8.0466,1.22E+08
5797,-28.933,-8.2962,46.922,1.32E+08
5798,-48.647,-7.9697,50.79,4.96E+07
5799,-5.6027,-16.329,35.166,1.49E+08
5800,2.3535,-11.946,35.448,9.69E+07
5801,-27.838,-9.7092,58.111,1.26E+08
5802,8.1646,-7.8624,47.269,1.94E+08
5803,-7.4632,6.7731,55.784,2.22E+08
5804,-48.239,-4.0869,57.965,5.84E+07
5805,7.1489,6.2748,55.598,2.05E+08
5806,2.013,-19.091,52.805,6.40E+07
5807,1.9837,-21.724,44.993,1.25E+08
5808,7.4639,-0.88239,50.976,2.19E+08
5809,-6.3637,3.3984,57.089,2.90E+08
5810,38.943,-22.089,7.9626,1.35E+08
5811,4.8369,-14.687,63.573,2.30E+07
5812,34.455,-5.4346,9.7946,6.90E+07
5813,-6.0542,14.053,61.283,2.82E+08
5814,1.0471,-3.6462,62.48,2.40E+08
5815,34.887,-12.747,20.005,1.10E+08
5816,31.448,-9.8096,16.92,1.30E+08
5817,41.885,-17.365,18.622,1.02E+08
5818,49.989,-21.092,15.078,9.11E+07
5819,7.2346,16.814,63.139,3.56E+08
5820,7.3561,13.391,56.087,2.67E+08
5821,-7.4393,22.866,58.748,4.39E+08
5822,62.884,-3.2793,8.0134,5.15E+07
5823,-6.5451,20.817,63.04,3.72E+08
5824,-7.2738,14.661,66.136,2.64E+08
5825,61.232,-17.415,11.989,8.68E+07
5826,4.1603,24.32,50.378,2.76E+08
5827,62.299,-5.5779,17.498,2.30E+07
5828,55.118,-9.7759,18.744,2.87E+07
5829,52.62,-1.2481,10.722,6.83E+07
5830,9.3371,26.583,61.455,6.73E+08
5831,8.2691,31.018,58.114,6.13E+08
5832,4.9111,30.366,66.687,4.04E+08
5833,-4.97E-02,23.141,79.212,8.66E+07
5834,-7.4702,34.525,80.776,9.81E+07
5835,79.174,1.8811,13.253,7.50E+07
5836,73.184,11.399,18.206,3.61E+07
5837,-5.2882,40.581,72.427,5.44E+07
5838,71.613,10.805,9.2522,1.89E+07
5839,7.3916,28.397,86.611,1.63E+08
5840,7.4908,36.687,87.195,1.01E+08
5841,77.352,18.286,18.257,3.84E+07
5842,7.6473,45.665,89.048,4.99E+07
5843,5.6988,39.125,94.458,6.70E+07
5844,1.3332,48.346,79.218,3.70E+07
5845,-0.19069,47.302,75.702,4.08E+07
5846,77.088,9.1484,8.7381,4.10E+07
5847,-2.533,33.84,101.69,8.32E+06
5848,2.97E-02,48.019,83.619,3.10E+07
5849,-6.3523,44.056,79.158,4.10E+07
5850,84.73,15.969,8.155,4.22E+07
5851,-7.1621,37.51,90.792,5.06E+07
5852,81.134,10.652,18.696,2.44E+07
5853,89.018,12.543,13.134,5.77E+07
5854,-2.8418,49.492,92.476,3.40E+07
5855,2.0224,49.654,90.278,3.37E+07
5856,7.9065,43.37,100.72,6.45E+07
5857,-3.005,34.511,107.08,7.05E+06
5858,3.8317,35.287,108.01,2.27E+07
5859,82.002,29.274,13.279,3.34E+07
5860,92.636,33.915,17.929,2.41E+07
5861,95.236,29.544,9.1096,3.03E+07
5862,98.965,27.148,8.9457,3.79E+07
5863,109.6,56.584,14.189,8.02E+06
5864,6.3669,35.896,91.117,8.68E+07
5865,65.6,-0.68481,7.6861,4.62E+07
5866,-7.1394,9.9469,58.463,2.23E+08
5867,-7.2975,17.963,59.189,3.64E+08
5868,7.4199,-11.801,46.421,1.38E+08
5869,7.8167,23.683,79.103,2.49E+08
5870,9.7199,-5.1126,41.848,2.97E+08
5871,-56.615,-7.9063,-61.114,1.21E+06
5872,-34.173,-20.355,-4.0891,2.12E+08
5873,-34.721,-6.2601,3.6312,1.77E+08
5874,-7.2855,-25.684,-34.171,1.26E+08
5875,-34.544,-31.472,-6.5578,1.48E+08
5876,-10.317,-33.277,-33.119,7.66E+07
5877,-34.843,-23.408,5.0879,2.19E+08
5878,-35.32,-30.301,-1.0131,1.71E+08
5879,13.011,-24.349,-32.002,1.41E+08
5880,-8.3184,24.974,-56.547,5.66E+07
5881,-31.283,-20.813,16.072,1.84E+08
5882,-9.494,31.179,-61.398,1.07E+07
5883,-22.009,-26.309,27.161,1.64E+08
5884,26.053,-31.692,-23.6,8.90E+07
5885,29.756,-27.449,-19.074,1.15E+08
5886,-11.876,-33.227,32.834,6.98E+07
5887,35.559,-1.196,4.1184,1.13E+08
5888,33.299,-32.757,10.236,1.37E+08
5889,9.7144,43.222,108.42,5.26E+07
5890,-9.4573,47.584,109.23,3.08E+07
5891,-60.877,-8.9781,-61.111,1.28E+06
5892,-54.933,-8.8324,-65.47,9.34E+05
5893,-49.423,-8.6328,-52.244,5.97E+06
5894,-49.138,-2.7041,-26.323,1.28E+07
5895,-33.09,-9.0201,-47.873,1.00E+07
5896,-19.437,-7.8919,-31.305,2.20E+08
5897,-25.609,-11.492,-25.507,2.12E+08
5898,-18.516,-12.894,-44.415,1.29E+08
5899,-36.759,-5.8559,-12.789,1.06E+08
5900,-35.395,-3.964,-15.763,9.21E+07
5901,-23.597,-7.776,-42.173,2.67E+08
5902,-30.511,-15.874,-18.302,2.23E+08
5903,-32.298,-19.766,-13.708,2.00E+08
5904,-17.964,-5.93,-41.625,1.79E+08
5905,-33.395,-11.244,-12.763,1.52E+08
5906,-27.689,-21.299,-21.918,1.95E+08
5907,-25.039,-16.444,-24.159,2.24E+08
5908,-33.566,-22.82,-9.7309,1.89E+08
5909,-12.97,-24.357,-32.245,1.30E+08
5910,-12.587,-16.947,-38.247,9.22E+07
5911,-16.397,-15.764,-45.5,7.88E+07
5912,-35.171,-11.444,-1.876,1.95E+08
5913,-17.376,-30.057,-30.83,9.88E+07
5914,-13.435,13.451,-45.671,1.62E+08
5915,-15.479,8.8375,-48.764,1.97E+08
5916,-3.4873,3.91,-52.461,3.31E+08
5917,-9.8147,-11.972,-52.27,1.42E+08
5918,-32.189,-40.212,-13.491,6.88E+07
5919,-1.43E-02,-12.637,-39.648,9.87E+07
5920,-15.729,16.253,-49.152,1.49E+08
5921,-13.063,6.8788,-56.94,2.45E+08
5922,5.3935,-3.9875,-39.304,9.20E+07
5923,4.1004,-2.13E-02,-47.083,1.99E+08
5924,-34.449,-36.255,3.6712,1.04E+08
5925,-14.708,-40.252,-31.111,4.94E+07
5926,8.6903,-13.709,-43.448,1.21E+08
5927,11.081,7.711,-45.617,2.48E+08
5928,-34.997,-6.0143,20.339,2.15E+08
5929,17.463,-3.1071,-41.635,1.80E+08
5930,-32.035,-8.9348,22.55,1.99E+08
5931,-28.94,-36.416,19.541,9.59E+07
5932,21.13,-4.4017,-34.495,1.82E+08
5933,-27.168,-3.7673,28.702,2.02E+08
5934,-24.674,-18.402,25.294,2.49E+08
5935,12.639,-32.432,-32.778,8.28E+07
5936,27.342,-11.535,-37.917,9.76E+07
5937,12.811,17.979,-48.701,1.75E+08
5938,26.962,-12.191,-29.841,1.10E+08
5939,27.806,-8.1891,-29.677,1.30E+08
5940,31.877,-15.988,-36.392,7.57E+07
5941,20.544,-22.507,-29.161,1.34E+08
5942,14.616,-39.823,-31.284,4.56E+07
5943,26.803,-3.249,-36.98,1.81E+08
5944,14.108,25.438,-50.771,4.36E+07
5945,-23.894,-3.3921,31.776,2.24E+08
5946,-22.025,-6.3166,28.623,2.18E+08
5947,-23.602,-38.986,25.649,7.34E+07
5948,7.791,25.329,-58.728,5.02E+07
5949,32.924,-2.2213,-57.686,2.52E+07
5950,-15.312,-6.5383,32.545,2.82E+08
5951,-41.25,-3.7792,39.112,8.41E+07
5952,-44.134,-6.6008,37.261,3.08E+07
5953,-16.77,-9.7887,36.479,3.75E+08
5954,-9.1805,-15.492,34.237,2.31E+08
5955,-14.88,-29.11,32.03,1.03E+08
5956,-47.481,-8.4602,41.565,7.59E+07
5957,-7.0453,-2.6039,38.218,2.20E+08
5958,36.083,-15.197,-14.543,1.60E+08
5959,-3.6552,-28.836,35.23,9.90E+07
5960,-23.864,-7.5809,50.81,1.14E+08
5961,35.476,-11.328,-2.4551,1.20E+08
5962,-10.873,-8.6909,42.396,3.20E+08
5963,-8.7622,-9.4364,46.7,2.30E+08
5964,-8.9754,-14.473,41.791,1.91E+08
5965,-15.581,-5.3665,46.628,4.13E+08
5966,-0.5755,-4.0263,39.85,1.25E+08
5967,2.7551,-32.417,35.05,9.85E+07
5968,35.18,-11.675,2.2228,1.28E+08
5969,5.4885,-3.7626,39.847,2.06E+08
5970,-9.3294,-19.171,42.041,1.51E+08
5971,34.887,-27.181,-3.5692,1.35E+08
5972,6.273,-37.006,34.394,8.27E+07
5973,-8.407,-10.484,51.762,1.75E+08
5974,40.2,-17.759,4.6591,8.96E+07
5975,-7.189,7.3755,51.029,2.79E+08
5976,-6.1456,-5.9062,57.236,2.25E+08
5977,-4.8038,-12.637,63.622,5.22E+07
5978,19.27,-7.0581,29.707,4.64E+08
5979,9.1051,-21.337,42.94,7.09E+07
5980,-3.7662,-7.9865,62.412,1.33E+08
5981,44.341,-9.6951,0.81044,2.51E+07
5982,-7.7393,-12.291,58.2,9.72E+07
5983,47.151,-6.4571,8.007,3.99E+07
5984,7.954,-11.206,65.898,2.47E+07
5985,2.2331,7.0874,64.354,3.09E+08
5986,18.909,-24.56,29.828,2.37E+08
5987,52.955,-4.8838,6.9236,3.91E+07
5988,44.548,-21.131,15.831,1.20E+08
5989,8.56,4.2284,64.816,1.50E+08
5990,17.765,-32.343,30.472,1.84E+08
5991,26.623,-35.205,22.57,2.13E+08
5992,52.133,0.28207,5.9161,6.84E+07
5993,24.426,-31.795,25.106,2.89E+08
5994,4.4907,11.456,68.044,2.97E+08
5995,61.894,6.2371,8.3205,4.40E+07
5996,-7.0365,27.096,55.023,3.96E+08
5997,7.2638,29.346,53.396,3.23E+08
5998,3.112,32.5,51.176,1.10E+08
5999,-9.8965,28.221,62.871,7.51E+08
6000,6.5705,25.707,74.279,2.20E+08
6001,-60.933,-3.5216,84.676,2.46E+07
6002,-3.4569,35.829,73.366,7.58E+07
6003,-10.369,31.731,71.454,2.66E+08
6004,6.5369,42.638,72.381,1.04E+08
6005,5.703,48.35,61.45,3.91E+07
6006,6.8118,44.375,84.211,4.62E+07
6007,80.288,1.5192,7.379,1.04E+08
6008,-6.2471,46.215,92.64,3.06E+07
6009,89.682,21.556,17.399,2.24E+07
6010,82.039,26.187,9.5714,2.04E+07
6011,8.4714,52.85,105.66,4.05E+07
6012,-7.2968,37.587,109.38,1.02E+07
6013,-0.80334,49.316,107.67,3.56E+07
6014,9.8641,34.018,115.39,8.98E+06
6015,98.39,27.765,17.457,2.39E+07
6016,94.498,37.701,9.3274,2.29E+07
6017,2.1609,55.555,119.79,7.35E+06
6018,98.042,44.422,15.026,1.19E+07
6019,-4.7596,38.903,125.19,1.54E+06
6020,115.46,37.847,17.576,1.71E+07
6021,112.32,57.149,18.174,8.96E+06
6022,116.62,49.894,17.541,1.11E+07
6023,121.13,44.234,12.914,4.00E+06
6024,106,53.214,14.51,9.12E+06
6025,99.252,49.59,12.389,1.29E+07
6026,103.8,36.315,10.289,2.38E+07
6027,97.98,33.356,16.73,2.77E+07
6028,103.57,31.828,14.218,2.17E+07
6029,90.889,36.443,13.538,1.86E+07
6030,96.076,38.414,14.395,2.35E+07
6031,96.845,25.928,11.78,3.26E+07
6032,89.624,29.971,8.8104,2.13E+07
6033,91.679,20.547,11.59,3.94E+07
6034,85.792,29.851,15.493,2.69E+07
6035,-4.8836,42.528,108.48,1.48E+07
6036,-2.6036,36.272,115.52,5.76E+06
6037,2.4033,42.962,105.48,3.57E+07
6038,4.4082,36.437,111.81,1.82E+07
6039,-3.1171,48.747,99.675,3.53E+07
6040,-6.5626,35.459,98.1,2.28E+07
6041,6.7031,35.356,97.827,7.07E+07
6042,1.7679,46.083,97.953,3.95E+07
6043,7.29,51.652,95.248,3.74E+07
6044,86.01,15.032,18.956,2.53E+07
6045,76.312,21.525,14.214,4.12E+07
6046,83.728,25.221,14.988,2.45E+07
6047,-4.6284,46.152,104.09,2.58E+07
6048,81.71,9.8471,11.874,4.74E+07
6049,-2.303,43.474,86.75,3.96E+07
6050,3.9339,33.399,89.809,7.58E+07
6051,-1.9508,36.111,91.981,3.19E+07
6052,-5.1338,32.105,83.713,6.80E+07
6053,77.273,15.719,13.048,2.09E+07
6054,77.719,9.2863,19.699,2.03E+07
6055,-0.94652,33.687,86.139,4.76E+07
6056,3.3676,29.269,83.634,9.66E+07
6057,3.5827,40.065,77.767,6.63E+07
6058,72.183,13.353,13.318,3.26E+07
6059,74.282,0.99803,12.446,5.83E+07
6060,-6.3932,28.381,75.558,1.35E+08
6061,-1.4609,28.519,82.036,4.48E+07
6062,71.125,-2.9203,11.856,6.73E+07
6063,4.2326,20.524,77.664,1.70E+08
6064,6.8655,32.738,76.91,1.49E+08
6065,-0.80556,33.386,71.182,1.23E+08
6066,64.402,5.04,18.139,5.85E+07
6067,77.247,3.0334,17.568,4.34E+07
6068,67.392,5.4796,13.474,2.63E+07
6069,-2.908,23.027,73.109,1.47E+08
6070,69.781,-7.452,11.594,8.74E+07
6071,59.903,-8.181,10.292,5.99E+07
6072,2.6329,41.682,53.644,6.33E+07
6073,6.4251,35.351,52.524,1.67E+08
6074,68.391,-5.4848,14.766,5.56E+07
6075,64.063,-4.27E-02,17.961,2.70E+07
6076,64.553,-9.205,12.724,6.86E+07
6077,-5.0313,25.639,51.099,3.10E+08
6078,67.938,12.472,16.281,6.38E+07
6079,68.578,10.249,12.324,3.63E+07
6080,-2.1667,28.485,63.035,3.48E+08
6081,-6.1591,27.645,70.799,2.07E+08
6082,62.958,-9.8658,18.15,4.44E+07
6083,-0.54725,26.48,55.74,2.86E+08
6084,-1.6915,30.557,55.736,2.74E+08
6085,58.707,-2.3772,11.589,2.89E+07
6086,3.2861,22.504,66.882,2.85E+08
6087,45.779,-8.6889,18.088,4.62E+07
6088,63.415,1.1903,12.788,2.44E+07
6089,4.0751,18.1,70.562,2.58E+08
6090,4.0617,17.567,49.491,3.31E+08
6091,36.864,-21.998,17.949,2.04E+08
6092,52.818,-15.556,7.6474,7.94E+07
6093,-47.075,-4.44,66.149,5.72E+07
6094,-45.191,-8.1078,71.087,5.36E+07
6095,-0.89812,18.341,50.482,3.50E+08
6096,-2.1707,10.184,62.759,3.04E+08
6097,52.15,-17.657,16.636,7.29E+07
6098,2.6548,11.753,52.565,3.52E+08
6099,-3.9074,14.491,49.125,3.39E+08
6100,4.1643,18.448,55.266,3.40E+08
6101,34.633,-7.11,16.274,1.23E+08
6102,26.845,-13.062,23.383,2.08E+08
6103,3.2914,1.5727,60.011,2.48E+08
6104,45.136,-16.462,12.98,7.38E+07
6105,44.455,-20.206,7.5959,7.58E+07
6106,-51.616,-8.8132,62.046,6.25E+07
6107,-39.042,-6.7242,64.02,2.22E+07
6108,2.8023,-12.827,60.124,7.86E+07
6109,37.745,-4.2384,11.656,8.63E+07
6110,6.1533,-2.8726,59.911,1.44E+08
6111,39.021,-13.596,8.3766,7.17E+07
6112,34.476,-12.848,9.9737,9.22E+07
6113,36.932,-19.197,12.908,1.26E+08
6114,-3.6674,0.12436,60.774,2.60E+08
6115,-1.1851,1.5888,45.806,3.59E+08
6116,6.4135,-9.3919,54.884,1.22E+08
6117,3.4361,-14.143,55.164,7.62E+07
6118,1.3276,-16.904,57.521,4.46E+07
6119,-6.0339,-15.589,51.169,1.09E+08
6120,-2.4841,-13.171,55.918,1.03E+08
6121,12.997,-9.3567,35.952,3.24E+08
6122,7.5283,-18.75,35.899,8.78E+07
6123,-0.55944,-19.485,48.706,9.07E+07
6124,5.8262,-12.005,37.255,9.29E+07
6125,7.0141,5.3231,46.244,3.62E+08
6126,3.7373,6.9356,51.813,3.35E+08
6127,4.606,-16.963,49.819,6.59E+07
6128,-48.502,-8.1477,59.594,4.24E+07
6129,-41.993,-4.6994,60.123,5.46E+07
6130,-5.7045,-17.71,44.862,1.22E+08
6131,38.612,-20.021,-4.1365,1.58E+08
6132,-0.78658,5.6228,47.58,4.29E+08
6133,-5.8114,0.62161,47.701,4.21E+08
6134,-29.702,-3.379,53.596,1.08E+08
6135,-6.7983,-21.676,42.614,1.31E+08
6136,3.5519,-1.2077,46.882,2.57E+08
6137,-8.835,-2.7497,44.627,2.76E+08
6138,-4.1748,-7.6991,37.265,1.68E+08
6139,-51.037,-4.3977,54.035,5.46E+07
6140,-41.317,-4.1533,51.422,6.79E+07
6141,-33.305,-4.4573,49.167,6.79E+07
6142,-22.241,-4.7674,46.868,2.29E+08
6143,33.555,-7.3477,-14.152,1.22E+08
6144,-45.115,-3.2402,48.782,8.58E+07
6145,-36.05,-8.5289,43.479,1.05E+08
6146,-36.372,-5.207,46.568,4.83E+07
6147,36.874,-4.4154,-10.391,1.60E+08
6148,36.854,-17.718,-27.497,9.33E+07
6149,32.565,-9.3924,-43.682,6.62E+07
6150,32.443,-14.699,-44.744,4.28E+07
6151,27.859,-10.47,-48.066,7.01E+07
6152,28.216,-18.737,-22.261,1.28E+08
6153,30.251,-6.6197,-18.632,1.16E+08
6154,-34.666,-8.3947,27.51,1.76E+08
6155,9.4539,26.434,-50.781,6.24E+07
6156,29.79,-4.1926,-46.028,1.22E+08
6157,32.19,-4.189,-21.254,1.39E+08
6158,26.17,-5.0095,-28.421,1.43E+08
6159,27.608,-7.5899,-38.85,1.16E+08
6160,17.3,-14.444,-31.412,1.22E+08
6161,28.001,-12.614,-24.644,1.21E+08
6162,23.589,-6.8013,-52.125,1.14E+08
6163,-36.924,-7.5024,32.729,1.19E+08
6164,12.483,8.8173,-54.207,2.48E+08
6165,18.027,-8.1348,-30.614,1.32E+08
6166,22.623,-13.01,-34.837,1.07E+08
6167,20,-3.2239,-49.513,2.14E+08
6168,-32.362,-5.2189,13.308,1.73E+08
6169,17.155,-3.5185,-54.045,1.97E+08
6170,8.6397,-10.48,-53.642,1.36E+08
6171,9.6746,2.414,-45.233,2.09E+08
6172,5.8186,-18.949,-35.996,1.17E+08
6173,11.421,3.293,-52.56,2.77E+08
6174,10.301,-15.973,-41.125,9.09E+07
6175,-33.277,-34.458,10.739,1.20E+08
6176,4.8643,-13.628,-36.235,9.87E+07
6177,-15.02,10.388,-54.082,2.04E+08
6178,-6.33,-5.0039,-57.263,2.37E+08
6179,-3.9133,-1.1102,-57.868,3.27E+08
6180,-10.117,-2.9495,-51.983,2.15E+08
6181,-13.499,-7.7766,-54.813,1.42E+08
6182,-2.5625,-8.5775,-36.227,5.89E+07
6183,1.8729,-8.4088,-52.972,1.85E+08
6184,-7.1337,-15.823,-42.257,1.24E+08
6185,-14.845,-13.927,-40.165,8.29E+07
6186,-9.2348,-4.6208,-37.917,8.96E+07
6187,-25.596,-7.4679,-28.256,1.99E+08
6188,-24.212,-4.7777,-34.051,2.63E+08
6189,-31.068,-6.8949,-24.025,1.46E+08
6190,-36.732,-7.0977,-24.752,1.07E+08
6191,-33.901,-9.35,-43.489,3.35E+07
6192,-31.267,-8.1173,-36.268,1.19E+08
6193,-44.381,-4.4247,-27.818,3.52E+07
6194,-32.55,-8.5578,-27.151,1.45E+08
6195,-34.259,-9.3708,-39.078,5.84E+07
6196,-39.468,-4.7044,-46.212,7.78E+06
6197,-42.594,-3.08,-41.365,1.51E+07
6198,-58.001,-7.7272,-57.47,1.88E+06
6199,-60.082,-7.683,-45.124,4.91E+06
6200,-53.649,-9.9789,-48.581,6.90E+06
6201,-55.037,-4.4742,-55.257,2.14E+06
6202,-65.379,-8.7746,-52.249,3.05E+06
6203,-46.391,-2.0846,-39.526,1.09E+07
6204,-34.336,-4.1995,-37.211,8.31E+07
6205,-3.185,-4.021,-39.431,7.94E+07
6206,0.34703,-8.2531,-47.776,1.58E+08
6207,4.014,-9.7722,-39.877,1.01E+08
6208,5.4049,-9.2307,-45.248,1.35E+08
6209,-15.241,-7.5787,-45.694,2.24E+08
6210,-6.0562,-6.5871,-44.877,1.42E+08
6211,-7.0449,-12.482,-38.502,8.51E+07
6212,-11.289,1.2541,-49.156,2.54E+08
6213,-1.5223,-4.5557,-55.169,2.46E+08
6214,8.8636,-2.6509,-56.009,2.66E+08
6215,11.328,-8.0976,-37.452,1.10E+08
6216,13.325,-13.418,-44.965,1.05E+08
6217,12.904,-11.83,-49.536,1.19E+08
6218,19.661,-13.546,-54.164,7.82E+07
6219,18.14,-15.586,-45.593,7.70E+07
6220,17.286,-15.037,-38.554,9.55E+07
6221,-29.644,-5.4925,30.951,1.89E+08
6222,-36.575,-5.1277,38.549,7.70E+07
6223,23.507,-11.171,-50.864,7.90E+07
6224,-21.248,-6.6852,33.996,2.82E+08
6225,-10.892,-1.9118,37.111,3.61E+08
6226,-15.896,-5.3068,41.121,3.73E+08
6227,31.736,-14.079,-25.28,1.09E+08
6228,32.441,-12.676,-21.913,1.18E+08
6229,35.62,-10.268,-25.39,1.07E+08
6230,-31.232,-8.4859,42.876,1.49E+08
6231,-46.205,-8.9385,54.708,7.13E+07
6232,-3.6188,-14.376,39.628,1.25E+08
6233,-2.9601,-18.582,37.403,9.91E+07
6234,3.9584,-16.616,36.197,6.64E+07
6235,5.0282,9.7117,58.218,2.76E+08
6236,4.3841,-17.656,45.048,5.95E+07
6237,5.5581,-2.1211,54.167,1.98E+08
6238,40.254,-21.455,3.4615,9.83E+07
6239,37.887,-9.1579,10.918,7.48E+07
6240,3.0227,-7.0166,58.957,1.55E+08
6241,36.057,-10.981,16.334,9.70E+07
6242,-3.4168,16.48,64.602,2.86E+08
6243,60.548,-12.232,12.938,6.96E+07
6244,55.963,-15.712,11.819,7.60E+07
6245,4.6203,25.434,54.699,3.18E+08
6246,53.907,-12.924,20.437,3.79E+07
6247,53.864,-8.7543,13.934,3.56E+07
6248,54.156,-4.1068,13.975,4.18E+07
6249,9.3557,30.421,67.769,5.22E+08
6250,-3.0294,44.345,73.106,3.27E+07
6251,6.2401,34.154,83.886,1.11E+08
6252,5.3827,40.072,83.09,6.81E+07
6253,1.7701,37.308,96.312,4.08E+07
6254,2.626,43.166,93.334,4.47E+07
6255,3.4131,45.058,80.846,4.25E+07
6256,74.083,7.9057,12.778,2.32E+07
6257,-4.1455,46.636,84.493,3.16E+07
6258,-5.3858,40.415,76.921,5.58E+07
6259,83.405,18.857,11.454,2.30E+07
6260,87.33,17.059,11.199,3.91E+07
6261,7.1882,50.254,88.758,2.79E+07
6262,-3.4304,37.774,103.61,9.11E+06
6263,1.1469,35.151,104.39,2.12E+07
6264,84.976,29.512,10.926,2.04E+07
6265,92.217,31.025,13.839,2.16E+07
6266,92.202,26.158,9.9815,2.79E+07
6267,-2.3908,7.1856,57.11,3.29E+08
6268,-5.1064,5.3517,60.735,2.55E+08
6269,-5.8226,10.274,53.464,2.74E+08
6270,8.8623,-9.893,42.757,1.96E+08
6271,4.5687,-11.392,42.269,8.73E+07
6272,5.8652,-7.3397,43.047,1.50E+08
6273,-1.4724,9.0125,51.885,3.81E+08
6274,-2.2514,12.411,56.916,3.27E+08
6275,-1.5497,4.1453,61.852,3.03E+08
6276,-4.2543,5.4268,53.59,3.54E+08
6277,3.0164,4.759,56.376,2.97E+08
6278,88.475,26.859,14.072,1.93E+07
6279,92.808,25.084,14.793,2.45E+07
6280,94.883,33.519,12.455,2.54E+07
6281,84.877,30.391,7.133,1.61E+07
6282,-2.4848,38.546,107.41,1.01E+07
6283,4.1487,38.658,104.42,3.95E+07
6284,-0.35259,37.906,100.03,2.48E+07
6285,-3.5392,42.239,104.34,1.91E+07
6286,86.464,16.999,15.371,2.81E+07
6287,84.706,13.756,12.995,3.87E+07
6288,80.799,17.519,14.933,2.01E+07
6289,80.192,22.359,13.856,2.70E+07
6290,86.878,23.482,11.101,2.22E+07
6291,-0.2451,43.673,77.628,4.35E+07
6292,-3.7282,36.593,78.055,6.71E+07
6293,-1.1249,43.936,82.608,4.31E+07
6294,76.809,11.424,13.221,2.11E+07
6295,71.278,7.5458,15.277,2.31E+07
6296,79.285,7.7245,14.73,3.88E+07
6297,71.536,3.5943,13.376,2.78E+07
6298,2.4082,44.909,89.415,4.09E+07
6299,2.4702,41.353,97.698,4.23E+07
6300,7.2127,42.927,92.455,6.54E+07
6301,1.8197,37.086,91.063,5.09E+07
6302,2.4791,36.805,86.243,6.28E+07
6303,3.0847,32.78,80.851,8.84E+07
6304,51.01,-6.4408,11.08,3.82E+07
6305,55.943,-5.7521,10.501,3.55E+07
6306,56.064,-12.155,14.818,5.26E+07
6307,49.452,-10.427,14.122,3.90E+07
6308,58.712,-7.5595,14.242,3.65E+07
6309,4.5698,29.273,56.799,3.53E+08
6310,4.2855,25.454,58.993,3.60E+08
6311,53.292,-11.603,10.842,5.51E+07
6312,60.563,-16.009,16.176,7.09E+07
6313,0.32697,15.185,65.859,2.99E+08
6314,-3.5818,19.757,59.78,3.35E+08
6315,-1.7878,19.954,68.416,2.47E+08
6316,37.874,-14.406,13.387,8.79E+07
6317,40.163,-8.4055,15.058,7.81E+07
6318,-2.5357,-8.1831,58.528,1.70E+08
6319,1.3113,-10.21,56.789,1.30E+08
6320,1.6267,-2.2005,57.658,2.45E+08
6321,2.3532,-6.4018,52.936,1.79E+08
6322,43.007,-10.65,9.8865,4.62E+07
6323,3.9581,1.5971,51.805,2.85E+08
6324,6.7597,-16.899,40.589,7.45E+07
6325,-1.0651,-17.222,43.455,9.68E+07
6326,2.7934,14.348,57.697,3.29E+08
6327,3.2069,12.494,63.133,3.04E+08
6328,1.5627,-17.984,40.353,8.42E+07
6329,1.699,-13.862,39.545,7.94E+07
6330,-4.7096,-20.226,34.338,1.29E+08
6331,-7.5976,-11.2,39.722,2.38E+08
6332,-4.9254,-11.733,43.85,1.67E+08
6333,-44.724,-6.7598,58.312,1.76E+07
6334,31.397,-8.1287,-24.189,1.27E+08
6335,-12.965,-6.4502,37.408,3.51E+08
6336,21.215,-7.4064,-47.506,1.36E+08
6337,19.976,-8.2837,-53.291,1.11E+08
6338,20.989,-12.566,-46.077,8.90E+07
6339,13.123,-10.877,-39.729,1.13E+08
6340,17.821,-10.29,-35.254,1.21E+08
6341,21.294,-12.344,-40.256,1.01E+08
6342,15.183,-4.3333,-49.209,1.85E+08
6343,15.903,-7.8346,-51.849,1.37E+08
6344,10.38,-9.1091,-45.045,1.33E+08
6345,9.7834,-5.1912,-41.331,1.29E+08
6346,13.98,-6.0239,-40.576,1.33E+08
6347,7.7607,-0.22243,-52.815,2.66E+08
6348,11.874,-3.9105,-52.471,1.96E+08
6349,2.6304,-3.8244,-51.445,2.11E+08
6350,-5.6586,-4.735,-51.525,1.94E+08
6351,-1.7997,-0.46302,-52.786,2.57E+08
6352,-7.1726,-1.0033,-46.234,2.00E+08
6353,-12.932,3.7481,-53.222,2.46E+08
6354,-6.7478,2.6627,-50.551,2.64E+08
6355,-12.109,-3.5832,-47.525,2.43E+08
6356,-6.0017,-8.4463,-40.242,8.66E+07
6357,-10.861,-10.083,-38.326,8.30E+07
6358,-1.0638,-6.7016,-42.111,1.05E+08
6359,-10.113,-8.0063,-48.732,1.84E+08
6360,-9.9748,-6.0734,-42.918,1.38E+08
6361,-13.382,-11.576,-44.779,1.30E+08
6362,8.9703,-8.0528,-48.901,1.41E+08
6363,4.7226,-13.217,-41.453,1.26E+08
6364,2.2976,-4.3456,-45.717,1.48E+08
6365,-52.389,-5.785,-49.006,4.74E+06
6366,-41.339,-5.7403,-41.414,1.59E+07
6367,-41.902,-7.5037,-24.45,6.09E+07
6368,-28.676,-7.3689,-31.825,1.80E+08
6369,-27.529,-8.8864,-22.192,1.60E+08
6370,-20.76,-8.4089,-36.762,2.45E+08
6371,-15.336,-9.3771,-36.694,1.40E+08
6372,-16.854,-10.144,-40.822,1.11E+08
6373,-10.907,-12.966,-41.25,7.95E+07
6374,-14.204,7.2331,-52.523,2.26E+08
6375,8.1407,-13.18,-39.465,1.08E+08
6376,9.2429,-18.418,-41.435,7.03E+07
6377,12.721,5.4274,-49.463,2.49E+08
6378,12.642,-0.15226,-48.54,2.31E+08
6379,14.027,0.45912,-53.766,2.59E+08
6380,23.633,-8.4597,-31.356,1.33E+08
6381,25.742,-8.4284,-25.365,1.26E+08
6382,27.43,-7.6293,-44.089,1.08E+08
6383,29.613,-11.545,-41.037,7.39E+07
6384,23.629,-7.4165,-37.412,1.40E+08
6385,-34.198,-4.2626,24.481,2.03E+08
6386,24.379,-13.539,-46.369,7.15E+07
6387,9.57E-02,-7.3182,35.994,1.35E+08
6388,-5.3654,-6.087,41.963,1.83E+08
6389,-6.4854,-4.9385,48.249,2.32E+08
6390,-10.511,-3.9359,40.254,3.39E+08
6391,3.7168,-7.1857,46.973,1.43E+08
6392,40.938,-23.812,-3.6107,1.06E+08
6393,3.7522,-11.27,51.162,1.10E+08
6394,-4.23E-02,-15.124,51.521,8.25E+07
6395,-4.5137,-11.28,52.207,1.39E+08
6396,-3.4924,-2.1022,55.567,3.14E+08
6397,40.307,-17.814,9.144,9.04E+07
6398,40.08,-20.288,15.513,1.38E+08
6399,42.65,-15.654,5.1854,6.28E+07
6400,48.594,-15.927,8.8487,6.50E+07
6401,48.702,-16.71,14.405,7.27E+07
6402,44.573,-12.23,14.57,5.15E+07
6403,1.8907,16.324,52.876,3.51E+08
6404,0.37682,21.11,54.119,3.23E+08
6405,54.092,-20.984,14.706,8.19E+07
6406,-3.0277,19.215,54.482,3.35E+08
6407,3.7235,16.675,66.224,3.01E+08
6408,2.3303,22.787,71.671,2.00E+08
6409,63.262,-2.7759,14.955,2.16E+07
6410,69.232,-0.17281,14.268,3.25E+07
6411,45.449,-6.9918,13.087,5.39E+07
6412,3.5374,26.312,64.022,3.53E+08
6413,-5.524,32.144,56.199,3.86E+08
6414,-4.1523,24.718,59.589,3.50E+08
6415,-0.8338,27.915,73.26,1.29E+08
6416,63.287,-5.163,11.908,4.51E+07
6417,-2.9892,24.748,77.628,7.14E+07
6418,-0.70141,20.887,77.061,1.36E+08
6419,80.774,2.7896,19.818,5.40E+07
6420,1.0985,36.067,73.534,8.03E+07
6421,-3.1597,31.332,74.421,1.03E+08
6422,5.896,28.503,78.791,1.57E+08
6423,2.6048,35.35,77.159,8.30E+07
6424,3.5472,24.891,76.761,1.36E+08
6425,-2.3483,38.607,87.761,4.36E+07
6426,-2.9684,36.944,83.446,5.49E+07
6427,-3.9401,41.434,90.942,3.55E+07
6428,-3.709,40.431,84.622,4.82E+07
6429,0.50525,46.98,103.32,3.62E+07
6430,-2.0928,43.935,93.744,3.19E+07
6431,-1.5128,48.617,95.844,3.64E+07
6432,1.7885,37.811,108.06,2.25E+07
6433,-1.2995,45.234,107.94,2.79E+07
6434,-2.8379,37.087,120.62,3.97E+06
6435,91.145,16.813,14.375,4.38E+07
6436,99.672,30.011,12.89,2.61E+07
6437,100.98,36.47,13.394,3.49E+07
6438,100.24,31.062,18.494,2.38E+07
6439,118.71,39.896,14.23,6.10E+06
6440,111.9,36.986,14.053,2.82E+07
6441,94.699,44.494,13.132,7.44E+06
6442,82.611,22.02,9.1809,1.91E+07
6443,89.772,24.674,19.697,2.07E+07
6444,93.396,20.692,15.926,3.34E+07
6445,3.1706,27.134,70.528,2.10E+08
6446,10.112,31.974,54.823,4.79E+08
6447,46.134,-10.171,6.5466,4.08E+07
6448,41.786,-14.369,1.3275,8.50E+07
6449,-4.617,-14.805,63.538,3.75E+07
6450,-14.789,-9.1941,43.894,3.36E+08
6451,-19.445,-29.791,28.623,1.43E+08
6452,28.935,-3.9369,-57.941,4.57E+07
6453,-35.265,-39.723,2.6427,9.40E+07
6454,2.9918,5.1694,-47.471,2.94E+08
6455,-33.082,-40.347,-9.5684,6.38E+07
6456,-0.70486,3.0812,-48.718,2.55E+08
6457,-32.7,-23.926,-14.042,1.95E+08
6458,-28.522,-25.975,-20.263,1.58E+08
6459,-17.555,-5.6085,-38.013,2.25E+08
6460,-16.524,-11.154,-33.069,1.79E+08
6461,-17.288,-3.0042,-30.702,2.07E+08
6462,34.564,-30.792,6.0548,1.53E+08
6463,26.959,-24.985,-22.456,1.32E+08
6464,-34.866,-10.712,2.8425,2.04E+08
6465,34.485,-35.864,6.0606,1.02E+08
6466,35.418,-28.995,1.5007,1.54E+08
6467,-13.539,-7.1531,-40.384,9.69E+07
6468,-2.6025,-0.15014,-47.41,1.95E+08
6469,-33.384,-35.766,-12.48,1.21E+08
6470,-15.487,-35.29,31.518,5.78E+07
6471,-3.418,-15.432,63.117,4.84E+07
6472,48.597,-11.127,10.691,4.45E+07
6473,44.205,-14.484,8.102,5.43E+07
6474,-1.3813,25.486,68.258,2.25E+08
6475,2.8343,29.949,75.367,1.22E+08
6476,98.526,44.958,10.697,1.63E+07
6477,95.482,28.816,13.983,2.44E+07
6478,0.24989,39.594,104.18,2.50E+07
6479,-1.766,40.446,96.907,2.71E+07
6480,3.6215,43.244,101.5,4.39E+07
6481,0.64444,37.899,81.661,5.98E+07
6482,0.82734,40.602,84.903,5.01E+07
6483,6.76E-02,40.896,89.855,4.13E+07
6484,-2.0946,33.966,80.586,6.18E+07
6485,-0.2372,33.064,77.238,7.33E+07
6486,-6.4261,33.473,74.625,1.15E+08
6487,66.701,-2.2308,12.094,4.06E+07
6488,0.21841,22.439,57.468,3.19E+08
6489,-2.3546,23.677,63.936,2.94E+08
6490,-0.27154,25.92,60.378,3.15E+08
6491,41.983,-6.7294,10.512,5.99E+07
6492,58.98,-3.6757,15.537,2.60E+07
6493,4.0651,19.693,63.423,3.31E+08
6494,6.4494,12.827,65.055,2.86E+08
6495,0.13853,17.933,57.728,3.34E+08
6496,-1.6383,14.655,53.584,3.47E+08
6497,41.337,-16.265,13.439,8.45E+07
6498,52.116,-14.186,13.182,6.10E+07
6499,37.302,-15.974,16.941,1.02E+08
6500,-2.8063,-3.0508,50.93,2.87E+08
6501,-3.9695,1.2613,52.373,3.94E+08
6502,-1.1568,2.4919,57.34,3.20E+08
6503,-4.3569,-10.489,47.826,1.47E+08
6504,-4.0672,-7.0473,54.025,2.22E+08
6505,-0.73924,-10.391,52.562,1.36E+08
6506,1.3887,-14.131,46.9,8.13E+07
6507,8.0159,-9.9474,50.897,1.60E+08
6508,2.8569,-3.8014,50.315,2.10E+08
6509,3.2414,-4.2619,43.462,1.71E+08
6510,-8.5563,-7.5173,38.46,2.68E+08
6511,-3.4295,-2.9384,45.813,2.09E+08
6512,-1.2611,-10.064,40.782,1.18E+08
6513,3.1145,-7.9437,39.334,1.08E+08
6514,25.01,-11.438,-41.971,9.27E+07
6515,-29.668,-5.8062,25.757,1.95E+08
6516,18.746,-6.4734,-38.273,1.48E+08
6517,27.062,-7.3152,-34.808,1.46E+08
6518,16.057,-2.5227,-46.224,2.11E+08
6519,9.9208,-3.4871,-46.248,1.74E+08
6520,7.9168,2.0074,-49.133,2.49E+08
6521,-16.743,2.7071,-52.992,2.36E+08
6522,-24.858,-9.1399,-32.095,2.25E+08
6523,3.2044,-6.1193,-42.237,1.11E+08
6524,7.079,-3.648,-49.121,1.81E+08
6525,-2.7176,-4.6275,-46.572,1.57E+08
6526,7.4858,-8.9101,-41.108,1.16E+08
6527,9.3287,-12.675,-50.397,1.31E+08
6528,-7.9353,-4.9382,-47.877,1.83E+08
6529,-13.317,-10.555,-50.464,1.73E+08
6530,-11.38,0.19509,-44.335,2.42E+08
6531,16.126,-8.4706,-45.09,1.32E+08
6532,18.489,-12.125,-49.836,9.47E+07
6533,17.995,-10.55,-41.808,1.14E+08
6534,-11.697,-8.6561,33.907,2.88E+08
6535,0.92784,10.294,59.747,3.17E+08
6536,-0.82333,15.005,60.877,3.17E+08
6537,8.8696,-14.776,43.13,1.45E+08
6538,-9.96E-02,4.5526,52.353,3.70E+08
6539,-1.078,-5.8316,55.219,2.21E+08
6540,2.4569,1.1473,55.6,2.77E+08
6541,-2.4983,-4.4466,59.483,2.25E+08
6542,56.853,-10.41,11.199,5.80E+07
6543,2.3843,43.938,84.678,4.31E+07
6544,75.177,4.1449,14.663,3.77E+07
6545,81.418,12.302,14.347,2.96E+07
6546,-2.9758,40.403,80.56,5.16E+07
6547,95.718,34.012,7.9879,3.00E+07
6548,2.2483,9.2714,55.414,3.36E+08
6549,-0.53804,38.245,76.874,5.55E+07
6550,-3.5739,-2.3155,63.236,2.19E+08
6551,0.4132,-1.2111,53.409,2.88E+08
6552,2.9876,16.965,61.599,3.25E+08
6553,-3.8337,16.712,57.203,3.23E+08
6554,22.116,-6.9626,-42.278,1.38E+08
6555,15.269,-9.4225,-37.383,1.19E+08
6556,13.336,-4.8999,-45.184,1.66E+08
6557,11.683,-15.781,-48.479,8.37E+07
6558,7.1426,-5.4578,-52.853,1.89E+08
6559,6.3492,-5.1072,-44.702,1.41E+08
6560,23.542,-9.2499,-44.524,1.10E+08
6561,-0.18043,-7.3104,44.087,1.17E+08
6562,-0.38464,-12.616,43.665,9.99E+07
6563,0.48135,-3.3054,46.818,2.01E+08
6564,-2.7835,-14.669,47.348,1.09E+08
6565,-1.8388,-6.819,49.504,1.74E+08
6566,-8.06,-6.5536,51.381,2.64E+08
6567,-0.23358,19.016,63.48,3.02E+08
6568,1.2813,22.166,61.33,3.18E+08
6569,59.276,-3.6967,20.19,3.23E+07
6570,1.5941,28.807,78.905,8.64E+07
6571,-3.6217,30.169,78.578,7.46E+07
6572,-1.7373,43.129,100.36,2.74E+07
6573,-14.936,-3.835,-43.496,2.23E+08
6574,34.728,-31.039,-2.0226,1.18E+08
6575,34.616,-32.075,-6.4757,1.05E+08
6576,4.1027,20.328,59.091,3.54E+08
6577,1.0031,-10.687,47.844,1.07E+08
6578,-0.54781,0.47552,49.109,3.31E+08
6579,24.72,-4.562,-45.118,1.60E+08
6580,-45.065,-3.1179,-50.17,4.56E+06
6581,-46.204,-8.7095,-42.706,7.06E+06
6582,-40.459,-5.888,-29.921,5.58E+07
6583,-18.977,0.30891,-41.984,5.43E+08
6584,-17.468,-1.8766,-53.698,2.04E+08
6585,-17.528,3.8778,-46.516,2.75E+08
6586,-25.739,-24.773,-24.364,1.72E+08
6587,-38.086,-7.0447,-16.029,1.13E+08
6588,-17.547,11.63,-43.384,1.81E+08
6589,11.264,-6.4261,-55.807,1.78E+08
6590,-5.4512,-40.058,-33.958,4.33E+07
6591,-34.829,-35.626,-0.72908,1.12E+08
6592,-22.253,-36.465,-26.554,7.43E+07
6593,-35.035,-25.536,0.10519,2.03E+08
6594,13.71,0.85017,-58.414,3.17E+08
6595,-35.032,-13.235,9.9233,2.57E+08
6596,-13.596,24.803,-57.941,3.66E+07
6597,-33.757,-36.053,-8.6445,1.01E+08
6598,6.6331,-12,-45.479,1.52E+08
6599,-34,-37.461,7.7653,9.88E+07
6600,-19.383,-39.998,-28.796,4.77E+07
6601,7.4526,-31.406,-34.241,9.01E+07
6602,-33.192,-25.261,11.73,1.79E+08
6603,16.466,-34.851,-30.524,7.96E+07
6604,33.043,-8.8473,-20.248,1.29E+08
6605,11.428,-28.491,-33.429,1.02E+08
6606,-28.617,-25.254,20.235,1.66E+08
6607,-26.961,-29.723,22.376,1.35E+08
6608,17.153,10.378,-60.17,1.15E+08
6609,-15.479,38.064,-62.337,1.96E+06
6610,22.127,-32.015,-27.161,8.92E+07
6611,31.673,-9.5039,-56.865,2.17E+07
6612,26.552,-7.0957,-48.673,1.06E+08
6613,18.534,-39.532,-29.357,4.63E+07
6614,38.049,-2.6964,-18.924,2.15E+08
6615,37.101,-2.1735,-27.156,1.96E+08
6616,24.24,-35.626,-25.036,6.78E+07
6617,35.463,-2.1929,-57.662,9.92E+06
6618,24.383,-40.31,-24.905,3.67E+07
6619,38.219,-2.8041,-23.5,2.11E+08
6620,38.141,-17.734,-22.295,1.31E+08
6621,6.9062,36.869,-59.1,7.42E+06
6622,30.207,-39.625,-16.735,4.75E+07
6623,9.199,37.812,-62.034,4.28E+06
6624,32.17,-35.941,-12.783,6.89E+07
6625,-0.90643,-35.238,34.902,6.42E+07
6626,37.047,-24.181,-7.0953,1.54E+08
6627,-13.833,-2.0554,47.088,6.44E+08
6628,33.851,-38.692,-7.9641,5.05E+07
6629,25.48,-21.653,24.508,2.54E+08
6630,11.064,-3.759,37.752,3.95E+08
6631,19.162,-36.018,29.193,1.78E+08
6632,7.6425,-32.445,34.069,1.22E+08
6633,10.727,-36.513,32.969,1.37E+08
6634,8.2015,-16.087,60.659,5.52E+07
6635,-62.629,-3.5651,61.418,6.06E+07
6636,-8.5754,9.8335,65.447,2.03E+08
6637,12.666,-32.01,32.741,1.42E+08
6638,14.769,-36.083,31.208,1.78E+08
6639,36.654,-3.6794,7.5173,5.23E+07
6640,-7.2591,4.6716,66.912,1.76E+08
6641,30.282,-25.939,22.442,4.05E+08
6642,-5.5782,-13.815,60.075,5.04E+07
6643,-6.6702,17.406,63.316,3.25E+08
6644,64.497,-12.361,15.898,6.93E+07
6645,32.284,-39.676,12.389,7.36E+07
6646,23.316,-6.3612,26.242,4.31E+08
6647,30.155,-36.791,17.477,1.41E+08
6648,68.708,-12.362,19.846,7.08E+07
6649,8.4957,8.8044,60.403,1.92E+08
6650,22.913,-36.147,26.07,2.10E+08
6651,65.429,-15.405,20.295,6.55E+07
6652,9.5629,40.834,53.589,1.67E+08
6653,69.291,-11.917,6.6282,1.29E+08
6654,-3.9966,23.069,54.913,3.37E+08
6655,-5.9071,42.606,53.498,1.20E+08
6656,10.57,35.954,52.108,2.52E+08
6657,0.69816,23.467,76.206,1.19E+08
6658,8.1974,48.689,95.484,4.73E+07
6659,92.567,15.177,20.393,3.80E+07
6660,2.7681,42.561,74.578,5.64E+07
6661,-4.0805,39.656,111.43,4.68E+06
6662,80.853,15.962,10.521,2.46E+07
6663,1.0691,52.589,107.8,4.17E+07
6664,5.8743,50.53,106.92,4.09E+07
6665,97.034,21.251,12.21,4.69E+07
6666,103.75,57.461,8.5076,8.16E+06
6667,-9.0088,-9.8425,-42.93,1.16E+08
6668,1.3194,-23.996,37.913,1.77E+08
6669,37.735,-19.897,-14.141,2.12E+08
6670,-15.857,-13.323,-52.192,1.21E+08
6671,-8.4522,-11.068,65.2,4.20E+07
6672,59.879,7.3105,6.85,5.94E+07
6673,88.554,9.4531,20.545,4.98E+07
6674,-7.4082,41.84,92.801,3.98E+07
6675,6.0799,47.658,104.14,4.80E+07
6676,77.921,19.295,10.898,2.16E+07
6677,-17.468,-15.25,-47.771,1.28E+08
6678,12.505,-8.1988,-50.572,1.41E+08
6679,-53.894,-7.034,-45.191,5.73E+06
6680,-49.643,-5.0161,-42.672,5.11E+06
6681,8.5153,40.434,80.617,8.29E+07
6682,37.55,-23.434,21.479,3.23E+08
6683,-4.0204,4.9404,49.881,4.19E+08
6684,1.6469,5.852,60.196,3.02E+08
6685,-16.993,6.2061,-54.864,2.08E+08
6686,-4.0075,12.549,66.317,2.72E+08
6687,85.661,21.371,14.45,2.04E+07
6688,9.90E-02,46.876,92.43,3.43E+07
6689,115.01,39.882,13.144,1.82E+07
6690,-1.5937,-4.9883,-50.547,1.90E+08
6691,-44.988,-4.9184,-53.443,5.10E+06
6692,-33.845,-40.441,5.8767,7.14E+07
6693,35.548,-3.4347,-54.183,2.92E+07
6694,10.035,-39.629,32.67,1.60E+08
6695,14.531,-39.675,31.097,1.74E+08
6696,30.212,-40.029,16.952,1.05E+08
6697,-3.2052,45.781,89.76,3.26E+07
6698,0.57432,-1.8975,-48.887,1.95E+08
6699,-62.223,-4.6266,-56.52,2.16E+06
6700,-56.948,-2.3869,-33.229,1.05E+07
6701,-51.372,-10.167,-34.191,8.13E+06
6702,-41.578,-5.5783,-49.944,5.32E+06
6703,-10.992,48.435,106.63,2.83E+07
6704,-14.147,-17.265,-33.378,1.45E+08
6705,-15.875,-3.4222,-40.364,1.61E+08
6706,-10.875,-18.054,-44.441,9.70E+07
6707,-9.0431,-17.315,-52,7.57E+07
6708,-17.913,-21.707,-32.728,1.61E+08
6709,-12.906,0.48401,-54.072,2.32E+08
6710,-15.639,19.016,-52.164,9.64E+07
6711,-6.4374,-33.731,-34.463,6.90E+07
6712,8.9023,-15.708,-45.62,8.14E+07
6713,-31.34,-39.394,14.22,8.43E+07
6714,6.4408,5.2028,-58.398,5.16E+08
6715,27.348,-14.865,-32.597,8.61E+07
6716,37.705,-2.1892,-45.814,7.35E+07
6717,31.801,-15.051,-53.798,1.86E+07
6718,32.296,-13.121,-49.662,3.37E+07
6719,29.263,-2.4233,-19.24,1.14E+08
6720,37.858,-1.6545,-34.746,1.59E+08
6721,31.836,-14.01,-30.124,1.06E+08
6722,37.789,-17.851,-39.223,3.02E+07
6723,33.027,-5.6473,-32.98,1.45E+08
6724,10.172,-47.215,-33.264,1.08E+07
6725,-11.695,-17.315,33.113,2.63E+08
6726,37.653,-2.5922,-30.702,1.76E+08
6727,10.676,30.366,-61.031,1.36E+07
6728,-15.436,-11.545,38.491,4.33E+08
6729,5.6911,31.273,-46.774,2.26E+07
6730,37.614,-14.037,-5.0728,1.37E+08
6731,14.527,38.598,-54.145,9.25E+06
6732,-8.9834,-17.572,44.572,1.38E+08
6733,37.531,-11.892,-12.14,1.98E+08
6734,-9.0896,-35.79,33.06,7.34E+07
6735,33.835,-24.787,-9.6315,1.26E+08
6736,-12.045,-47.25,32.255,5.80E+07
6737,88.494,32.829,11.413,1.89E+07
6738,-9.9486,-22.954,49.549,7.75E+07
6739,59.347,-10.221,7.4499,8.52E+07
6740,37.285,-18.406,-7.4793,1.51E+08
6741,2.1143,-13.754,62.84,6.97E+07
6742,10.584,27.61,66.311,5.96E+08
6743,-5.2374,-5.2278,64.24,1.23E+08
6744,7.1473,-47.316,34.397,5.00E+07
6745,32.523,-6.4363,13.382,1.06E+08
6746,-5.582,4.845,71.238,1.13E+08
6747,8.3862,28.053,76.008,2.35E+08
6748,61.427,9.9267,6.3705,5.79E+07
6749,64.906,-15.353,14.468,8.44E+07
6750,70.894,-8.5529,7.0332,1.20E+08
6751,65.281,7.9125,19.283,7.38E+07
6752,73.604,-7.1772,20.47,7.24E+07
6753,76.477,-0.29676,15.466,6.62E+07
6754,10.579,42.124,73.265,1.46E+08
6755,10.366,48.958,68.566,6.09E+07
6756,8.0317,48.909,85.216,2.64E+07
6757,87.692,8.4113,6.551,9.29E+07
6758,84.602,5.3265,6.7607,9.98E+07
6759,59.529,-5.911,7.2955,6.15E+07
6760,92.491,13.981,6.8414,7.54E+07
6761,89.704,18.049,7.3315,4.95E+07
6762,-5.617,56.536,117.6,7.59E+06
6763,-4.8284,-6.9145,45.983,1.68E+08
6764,37.863,-2.4761,-51.279,3.33E+07
6765,39.639,-2.4698,6.782,7.39E+07
6766,30.994,-22.77,23.04,2.96E+08
6767,1.2342,41.597,80.856,5.05E+07
6768,10.449,29.6,70.481,3.61E+08
6769,-48.224,-4.2708,72.651,5.54E+07
6770,-5.5802,13.612,70.02,2.17E+08
6771,5.4702,-15.66,-42.116,1.20E+08
6772,-9.4175,-11.834,-34.236,1.07E+08
6773,5.3571,32.6,54.858,2.70E+08
6774,-0.26864,39.492,93.951,3.51E+07
6775,3.381,-14.99,43.2,6.60E+07
6776,87.1,30.204,18.677,3.01E+07
6777,-34.996,-8.9828,40.026,1.41E+08
6778,27.776,-11.984,-51.834,5.58E+07
6779,7.86,-10.77,-48.326,1.30E+08
6780,-8.5311,2.3937,-53.558,2.76E+08
6781,-10.023,-15.562,-42.551,8.24E+07
6782,32.129,-39.85,-11.999,5.43E+07
6783,18.823,-39.384,28.566,1.96E+08
6784,91.773,12.196,20.416,4.82E+07
6785,4.0563,48.965,101.55,4.49E+07
6786,-18.32,-17.29,-50.082,5.88E+07
6787,-49.59,-6.8241,-32.77,5.64E+06
6788,-8.0323,-18.651,47.941,1.18E+08
6789,-8.689,-40.724,32.534,8.96E+07
6790,-1.4585,-14.464,62.494,5.97E+07
6791,73.746,-2.6039,15.582,6.48E+07
6792,75.584,-4.2413,19.447,7.01E+07
6793,-65.636,-10.266,-43.074,4.46E+06
6794,-80.662,-9.3446,-61.916,3.58E+05
6795,-53.996,-2.2303,-29.875,1.22E+07
6796,-48.872,-10.5,-61.895,1.69E+06
6797,-79.026,-9.292,-58.026,1.08E+06
6798,-57.171,-1.9566,-41.905,3.36E+06
6799,-81.458,-2.58,-65.184,4.88E+05
6800,-21.362,-11.305,-43.349,2.08E+08
6801,-18.721,-15.967,-38.205,1.33E+08
6802,4.231,-3.7379,-34.38,5.48E+07
6803,-27.297,-40.579,-21.637,5.25E+07
6804,2.648,-42.147,-35.598,1.76E+07
6805,-18.375,-47.357,-28.932,5.41E+07
6806,-11.892,-45.377,-33.458,2.03E+07
6807,-8.8967,-42.241,-34.341,2.28E+07
6808,31.837,-2.3254,-39.307,1.57E+08
6809,7.0856,-39.996,-33.63,4.95E+07
6810,-34.597,-46.419,-2.5506,4.64E+07
6811,15.615,18.406,-61.044,4.13E+07
6812,-9.9475,-47.008,-33.183,2.46E+07
6813,-2.4225,-46.252,-35.401,1.16E+07
6814,16.34,27.141,-60.284,1.42E+07
6815,-35.401,-46.252,2.4225,6.21E+07
6816,-5.0755,-47.126,-34.447,1.27E+07
6817,-0.29765,-47.093,-34.636,1.40E+07
6818,-18.929,-6.7716,29.875,2.32E+08
6819,13.941,-47.41,-31.215,1.70E+07
6820,-20.566,-47.469,27.409,8.52E+07
6821,-22.596,-40.635,27.841,3.24E+07
6822,18.375,-47.357,-28.932,2.04E+07
6823,28.38,-39.637,-21.575,3.46E+07
6824,38.142,-10.343,-57.227,9.75E+06
6825,-16.516,-47.25,30.219,6.76E+07
6826,-11.246,-15.379,42.574,1.36E+08
6827,34.586,-14.552,-0.38424,1.31E+08
6828,10.351,-23.067,44.593,5.79E+07
6829,-3.6896,-1.9665,38.629,1.58E+08
6830,-12.422,-2.5304,49.347,7.28E+08
6831,-11.642,-21.44,41.799,1.24E+08
6832,34.457,-40.77,-9.9537,5.40E+07
6833,34.199,-15.27,3.3663,1.27E+08
6834,34.996,-40.505,3.0413,5.73E+07
6835,-4.9673,-10.324,64.688,7.44E+07
6836,11.925,-47.101,33.964,8.04E+07
6837,25.339,-14.857,25.978,2.50E+08
6838,34.28,-40.493,7.6555,7.10E+07
6839,5.6093,-8.882,67.221,7.74E+07
6840,-8.9967,1.5056,59.417,1.79E+08
6841,49.102,-22.938,20.864,9.65E+07
6842,-41.194,-3.1827,73.738,7.73E+07
6843,29.686,-16.794,16.515,9.88E+07
6844,-10.422,26.797,65.424,5.85E+08
6845,16.516,-47.25,30.219,1.25E+08
6846,12.692,-47.441,32.023,1.12E+08
6847,-54.711,-9.2763,85.751,2.39E+07
6848,-50.995,-9.1937,83.454,2.77E+07
6849,20.652,-47.25,27.567,1.28E+08
6850,63.264,-17.268,20.206,6.43E+07
6851,28.195,-41.079,19.617,1.07E+08
6852,-57.572,-3.4336,86.959,2.31E+07
6853,-7.2855,16.692,75.304,1.76E+08
6854,58.364,5.8437,5.2154,5.24E+07
6855,4.9376,23.435,80.79,1.67E+08
6856,-9.1593,46.679,102.8,2.83E+07
6857,84.887,6.4341,20.343,5.11E+07
6858,76.514,-4.0715,6.4985,1.27E+08
6859,74.594,11.327,6.724,2.67E+07
6860,89.151,31.987,19.721,3.02E+07
6861,83.084,24.816,19.586,3.38E+07
6862,94.335,21.046,20.881,2.40E+07
6863,92.966,27.039,19.426,2.32E+07
6864,-9.733,33.806,115.36,7.35E+06
6865,114.16,50.362,7.9933,1.03E+07
6866,-56.148,-9.8616,-33.408,1.26E+07
6867,-5.6105,-11.853,-57.627,1.50E+08
6868,7.6273,-16.798,-38.636,1.02E+08
6869,-46.078,-10.472,50.694,1.04E+08
6870,37.852,-17.367,-14.556,1.94E+08
6871,37.619,-9.8132,-5.5281,1.62E+08
6872,6.6731,-40.508,33.26,1.49E+08
6873,9.5501,3.3017,44.589,4.25E+08
6874,-11.112,54.722,114.72,1.22E+07
6875,8.722,38.583,91.379,9.32E+07
6876,-49.8,-9.815,-55.774,4.68E+06
6877,-9.0596,-12.441,-53.466,1.33E+08
6878,-30.229,-11.017,-24.245,2.07E+08
6879,14.728,-15.658,-35.858,1.02E+08
6880,-18.161,-3.0156,-42.386,2.37E+08
6881,71.186,-10.288,20.208,7.57E+07
6882,-31.935,-41.087,11.601,8.45E+07
6883,-76.046,-7.342,-57.733,1.89E+06
6884,-9.4078,56.675,115.48,6.92E+06
6885,-30.048,-11.496,-20.148,1.79E+08
6886,11.434,-14.419,-37.661,1.03E+08
6887,54.617,3.7067,4.6923,6.18E+07
6888,-11.711,50.57,63.68,4.34E+07
6889,-9.4754,49.09,77.975,1.91E+07
6890,96.677,18.19,21.474,3.22E+07
6891,-20.851,-1.3961,-42.165,6.83E+08
6892,56.47,-21.82,5.0954,1.16E+08
6893,52.766,-23.269,3.4634,1.14E+08
6894,-19.073,11.225,-57.773,1.17E+08
6895,38.108,-2.0545,-9.5271,1.95E+08
6896,39.678,-12.502,-5.4759,2.68E+08
6897,-19,14.079,-43.752,6.52E+07
6898,-46.672,-3.45E-11,36.151,1.92E+08
6899,-64.629,-11.5,63.801,8.35E+07
6900,-10.561,21.979,46.813,4.24E+08
6901,9.8659,53.671,103.55,3.45E+07
6902,36.763,-11.768,-54.768,1.54E+07
6903,19.435,11.738,-61.485,2.93E+07
6904,-49.333,-12.046,-22.801,1.58E+07
6905,19,14.072,-43.822,8.35E+07
6906,49.33,1.8864,4.9365,1.20E+08
6907,-10.355,29.203,94.404,5.32E+07
6908,43.496,-24.482,-2.3136,1.29E+08
6909,-12.25,32.97,116.71,3.85E+06
6910,-10.25,50.052,74.077,4.22E+07
6911,10.14,49.934,74.156,6.45E+07
6912,-4.75,-11.702,67.013,9.73E+07
6913,-19,10.013,-61.848,7.43E+07
6914,-19.5,11.708,-61.524,5.25E+07
6915,-19.429,12.043,-61.937,5.72E+07
6916,-19,12.415,-59.587,9.34E+07
6917,-18.5,12.232,-61.327,1.22E+08
6918,-18.28,12.176,-61.855,1.11E+08
6919,-18.315,12.153,-62.073,9.10E+07
6920,-18.924,11.959,-60.829,8.00E+07
6921,-18.646,10.54,-61.288,8.16E+07
6922,-19,-7.1136,-60.048,1.05E+08
6923,-19.383,-9.2464,-59.747,7.71E+07
6924,-19,-11.408,-59.395,6.29E+07
6925,-16.583,-9.2543,-59.823,9.28E+07
6926,-19.383,-9.9396,-59.654,7.19E+07
6927,-19.314,-8.5516,-59.846,8.66E+07
6928,-16.756,-7.4369,-60.014,1.22E+08
6929,-18.396,-10.321,-58.264,7.65E+07
6930,-18.377,-8.3153,-59.041,8.95E+07
6931,-19,5.7311,-61.398,1.27E+08
6932,-19.413,9.8479,-61.721,7.70E+07
6933,-18.315,10.013,-61.848,1.10E+08
6934,-19.346,4.9103,-61.25,1.35E+08
6935,-17.05,7.0052,-61.532,1.44E+08
6936,-17.39,9.1428,-61.757,1.27E+08
6937,-17.892,6.0992,-59.824,1.37E+08
6938,-18.646,8.3995,-61.063,1.09E+08
6939,-19,1.4495,-60.948,1.53E+08
6940,-19.346,2.7695,-61.025,1.58E+08
6941,-17.05,4.8645,-61.307,1.70E+08
6942,-17.319,2.6574,-61.075,1.78E+08
6943,-17.892,3.9584,-59.599,1.63E+08
6944,-19,-2.832,-60.498,1.42E+08
6945,-19.707,-0.85954,-60.411,1.43E+08
6946,-19.346,0.62871,-60.8,1.60E+08
6947,-16.929,-1.3379,-60.655,1.80E+08
6948,-17.319,0.51662,-60.85,1.81E+08
6949,-18.047,-0.47297,-59.21,1.60E+08
6950,-17.892,1.8176,-59.373,1.65E+08
6951,-19.707,-5.0416,-59.971,1.15E+08
6952,-19.707,-3.0003,-60.186,1.31E+08
6953,-19.5,-3.9403,-58.187,1.27E+08
6954,-19.314,-6.4108,-60.071,1.09E+08
6955,-16.929,-3.4787,-60.43,1.64E+08
6956,-16.756,-5.2961,-60.239,1.45E+08
6957,-18.047,-2.6137,-58.985,1.45E+08
6958,-17.784,-4.9633,-58.51,1.27E+08
6959,-18.377,-6.1746,-59.266,1.13E+08
6960,-19.924,-9.1898,-59.209,6.94E+07
6961,-20,-7.1085,-59.043,8.43E+07
6962,-20,-11.124,-58.436,5.46E+07
6963,-19.928,-9.8817,-59.104,6.41E+07
6964,-20,-8.0182,-56.856,8.12E+07
6965,-20,-10.229,-56.606,6.52E+07
6966,-19.894,-8.4993,-59.348,7.85E+07
6967,-18.896,-10.269,-57.767,6.71E+07
6968,-18.877,-8.2631,-58.544,7.97E+07
6969,-19.702,-9.9148,-59.444,6.72E+07
6970,-19.654,-8.5315,-59.655,8.17E+07
6971,-18.73,-8.3,-58.895,8.31E+07
6972,-20,9.2221,-60.76,9.49E+07
6973,-19.926,11.558,-61.338,4.98E+07
6974,-20,11.512,-58.612,6.75E+07
6975,-19,11.787,-60.778,1.13E+08
6976,-20,9.7339,-58.618,1.25E+08
6977,-19.424,11.514,-60.28,7.22E+07
6978,-18.532,10.523,-59.448,1.19E+08
6979,-19.146,10.095,-60.739,8.09E+07
6980,-20,-3.0259,-59.472,1.22E+08
6981,-20,-5.9769,-57.071,1.02E+08
6982,-20,-3.9875,-57.679,1.22E+08
6983,-19.894,-6.458,-59.563,9.70E+07
6984,-18.284,-5.0105,-58.003,1.13E+08
6985,-18.877,-6.2217,-58.758,9.87E+07
6986,-20,1.0568,-59.901,1.54E+08
6987,-20,5.82E-02,-57.253,1.80E+08
6988,-20,-1.9461,-57.894,1.41E+08
6989,-19.908,0.48407,-60.263,1.51E+08
6990,-18.547,-0.61961,-58.692,1.51E+08
6991,-20,5.1394,-60.33,1.55E+08
6992,-20,2.0995,-57.468,1.93E+08
6993,-20,4.0724,-58.443,1.93E+08
6994,-19.908,2.5254,-60.477,1.65E+08
6995,-18.547,1.4217,-58.907,1.64E+08
6996,-18.392,3.7123,-59.07,1.72E+08
6997,-19.939,9.5073,-61.135,9.49E+07
6998,-20,6.1137,-58.658,1.81E+08
6999,-20,7.6926,-58.403,1.68E+08
7000,-19.908,4.5667,-60.692,1.52E+08
7001,-18.392,5.7536,-59.284,1.58E+08
7002,-19.146,8.054,-60.524,1.29E+08
7003,-19.925,11.815,-58.969,6.18E+07
7004,-19.411,12.32,-59.399,8.18E+07
7005,-19.633,12.383,-57.681,5.66E+07
7006,-19.708,6.8992,-61.225,1.06E+08
7007,-19.306,11.801,-60.634,7.20E+07
7008,-19.028,10.383,-61.094,8.24E+07
7009,-19.383,-19.924,-47.889,2.26E+07
7010,-19,-19.799,-50.076,3.09E+07
7011,-19,-20,-47.228,3.13E+07
7012,-17.25,-20,-47.889,5.82E+07
7013,-19.288,-19.934,-48.635,2.42E+07
7014,-18.877,-19.095,-47.565,2.98E+07
7015,-18.66,-18.645,-48.985,3.69E+07
7016,-19.924,-19.383,-47.889,1.18E+07
7017,-20,-18.816,-49.893,1.60E+07
7018,-20,-19,-47.228,1.81E+07
7019,-19.924,-19.383,-47.228,1.08E+07
7020,-20,-18.25,-47.233,3.49E+07
7021,-19.89,-19.432,-48.632,1.12E+07
7022,-19.377,-18.595,-47.565,2.70E+07
7023,-19.16,-18.145,-48.985,3.57E+07
7024,-19.383,-19.924,-47.228,2.33E+07
7025,-19.707,-19.707,-47.228,1.33E+07
7026,-19.633,-19.751,-48.623,1.70E+07
7027,-19.23,-18.948,-47.565,2.59E+07
7028,-20,-17.379,-53.636,2.84E+07
7029,-20,-17.885,-49.204,2.85E+07
7030,-20,-17.136,-49.205,6.55E+07
7031,-19.913,-19.078,-50.611,1.82E+07
7032,-19.937,-18.228,-52.81,2.53E+07
7033,-20,-15.976,-51,5.25E+07
7034,-19.16,-17.78,-50.956,3.52E+07
7035,-20,-14.696,-56.616,4.03E+07
7036,-19.707,-16.7,-55.722,3.64E+07
7037,-19.946,-17.178,-54.525,3.13E+07
7038,-19.945,-15.726,-56.172,3.83E+07
7039,-20,-13.741,-54.816,4.50E+07
7040,-20,-14.929,-52.709,5.96E+07
7041,-18.853,-15.974,-54.443,4.57E+07
7042,-18.896,-13.781,-55.978,5.01E+07
7043,-19.16,-16.732,-52.665,4.24E+07
7044,-19.707,-13.315,-58.32,4.72E+07
7045,-19.921,-11.878,-58.598,5.34E+07
7046,-19.945,-14.087,-57.441,4.32E+07
7047,-20,-12.151,-56.036,5.37E+07
7048,-18.896,-12.191,-57.198,5.77E+07
7049,-19,-15.305,-57.409,4.15E+07
7050,-16.583,-11.408,-59.395,7.62E+07
7051,-17.157,-14.303,-58.101,6.14E+07
7052,-19.407,-12.076,-59.083,5.36E+07
7053,-19.458,-14.371,-57.927,4.42E+07
7054,-18.353,-14.611,-56.109,5.28E+07
7055,-18.396,-12.418,-57.643,5.91E+07
7056,-19,-18.232,-54.159,3.51E+07
7057,-17.157,-16.058,-56.781,5.88E+07
7058,-17.346,-17.933,-54.623,5.77E+07
7059,-19.407,-17.622,-54.913,3.39E+07
7060,-19.455,-16.124,-56.571,3.87E+07
7061,-18.353,-16.346,-54.778,4.86E+07
7062,-17.25,-19.799,-50.076,5.80E+07
7063,-17.346,-18.993,-52.7,5.71E+07
7064,-19.288,-19.598,-50.797,2.57E+07
7065,-19.396,-18.757,-53.02,3.05E+07
7066,-18.353,-17.488,-52.913,4.37E+07
7067,-18.66,-18.247,-51.135,4.13E+07
7068,-19.383,-19.924,-46.567,2.10E+07
7069,-19.066,-20,-44.55,1.57E+07
7070,-17.25,-20,-47.228,5.88E+07
7071,-17.331,-20,-45.494,5.26E+07
7072,-18.757,-18.973,-45.87,2.42E+07
7073,-18.877,-19.095,-46.904,2.94E+07
7074,-19.924,-19.383,-46.567,1.05E+07
7075,-20.066,-19.001,-44.575,3.17E+07
7076,-20.002,-18.097,-46.201,4.90E+07
7077,-20,-18.25,-46.573,3.78E+07
7078,-19.988,-19.383,-44.59,2.02E+07
7079,-19.257,-18.473,-45.87,2.24E+07
7080,-19.377,-18.595,-46.904,2.78E+07
7081,-19.447,-19.922,-44.575,4.41E+06
7082,-19.772,-19.707,-44.576,9.04E+06
7083,-19.11,-18.827,-45.87,1.86E+07
7084,-19.23,-18.948,-46.904,2.50E+07
7085,-20.982,-19.388,-38.648,1.96E+07
7086,-20.594,-19.002,-40.627,2.16E+07
7087,-20.994,-16.797,-38.92,7.60E+07
7088,-20.611,-17.427,-40.556,4.71E+07
7089,-20.526,-18.251,-38.767,5.69E+07
7090,-20.088,-18.539,-39.487,3.24E+07
7091,-20.517,-19.388,-40.614,3.20E+07
7092,-20.411,-19.933,-38.591,5.15E+07
7093,-20.382,-18.606,-38.73,6.83E+07
7094,-20.299,-19.71,-40.59,2.11E+07
7095,-19.943,-18.894,-39.449,4.17E+07
7096,-20.094,-18.103,-44.21,5.82E+07
7097,-20.276,-17.415,-42.521,7.29E+07
7098,-20.186,-19.384,-42.602,3.35E+07
7099,-18.916,-18.111,-42.377,4.45E+07
7100,-19.694,-18.539,-41.439,5.53E+07
7101,-19.389,-18.474,-43.882,3.27E+07
7102,-17.692,-20,-41.333,2.55E+07
7103,-19.644,-19.922,-42.571,1.24E+07
7104,-17.462,-20,-43.481,3.63E+07
7105,-19.41,-20,-41.546,1.98E+07
7106,-18.415,-18.61,-42.351,2.65E+07
7107,-19.193,-19.038,-41.413,3.51E+07
7108,-18.888,-18.973,-43.857,1.67E+07
7109,-20,12.966,-44.776,5.01E+07
7110,-19.5,13.747,-42.131,1.27E+07
7111,-19.924,13.63,-42.118,7.87E+06
7112,-19,13.668,-42.876,1.23E+08
7113,-18.78,13.724,-42.349,1.20E+08
7114,-20,11.489,-41.893,7.51E+07
7115,-18.78,13.747,-42.131,8.66E+07
7116,-19.961,13.438,-42.93,1.86E+07
7117,-18.773,12.44,-42.731,9.75E+07
7118,-19.5,13.664,-42.915,4.09E+07
7119,-20,12.008,-53.888,1.03E+08
7120,-19.5,12.218,-56.675,9.81E+07
7121,-20,9.9822,-56.256,1.43E+08
7122,-19.832,12.387,-54.968,8.38E+07
7123,-19.424,11.762,-57.918,8.67E+07
7124,-19.794,11.878,-56.022,9.25E+07
7125,-19.536,11.492,-57.012,9.83E+07
7126,-20,12.469,-49.5,1.06E+08
7127,-20,9.228,-51.977,1.91E+08
7128,-20,9.5355,-48.956,1.78E+08
7129,-20,10.23,-53.894,1.59E+08
7130,-19.862,12.652,-52.608,9.94E+07
7131,-18.836,11.068,-51.873,1.64E+08
7132,-19.707,13.408,-47.336,7.53E+07
7133,-19.707,13.146,-49.823,9.37E+07
7134,-19,13.163,-47.688,1.50E+08
7135,-20,11.205,-44.591,9.97E+07
7136,-20,9.7484,-46.93,1.63E+08
7137,-19.961,13.155,-45.627,5.22E+07
7138,-19.862,12.865,-50.582,8.77E+07
7139,-18.836,11.281,-49.847,1.49E+08
7140,-17.739,10.76,-48.119,1.39E+08
7141,-18.773,12.156,-45.429,1.22E+08
7142,-19.375,14.149,-42.173,1.81E+07
7143,-18.5,14.166,-42.929,1.11E+08
7144,-18.28,14.221,-42.401,1.08E+08
7145,-18.28,14.244,-42.183,7.17E+07
7146,-19.484,14.033,-42.992,9.88E+06
7147,-19,14.161,-42.968,2.61E+07
7148,-19.782,13.783,-42.966,1.68E+07
7149,-19,13.46,-49.642,9.76E+07
7150,-18.5,13.904,-45.415,1.32E+08
7151,-18.5,13.682,-47.528,1.32E+08
7152,-19.484,13.772,-45.478,4.95E+07
7153,-18.273,12.676,-45.27,9.95E+07
7154,-19,13.9,-45.454,6.50E+07
7155,-19,12.937,-54.614,1.20E+08
7156,-18.5,12.977,-54.241,1.67E+08
7157,-18.5,13.199,-52.128,1.68E+08
7158,-18.5,13.421,-50.015,1.56E+08
7159,-19.251,13.085,-52.905,9.89E+07
7160,-18.336,11.539,-52.174,1.45E+08
7161,-18.5,12.493,-58.841,1.49E+08
7162,-18.5,12.715,-56.728,1.78E+08
7163,-19.5,10.44,-56.681,1.41E+08
7164,-19.249,12.816,-55.391,1.05E+08
7165,-18.924,12.22,-58.343,1.12E+08
7166,-18.336,11.278,-54.66,1.54E+08
7167,-18.032,11.23,-57.511,1.37E+08
7168,-19.294,12.336,-56.447,1.10E+08
7169,-19.036,11.951,-57.437,1.18E+08
7170,-10.25,-20,-47.889,1.00E+08
7171,-8.5,-20,-46.08,1.36E+08
7172,-8.5,-19.864,-49.689,8.13E+07
7173,-7.926,-19.886,-46.08,1.73E+08
7174,-7.926,-19.886,-47.889,1.07E+08
7175,-7.6212,-19.645,-49.169,9.23E+07
7176,-9.1053,-18.091,-47.365,1.04E+08
7177,-8.4422,-19.212,-46.816,1.24E+08
7178,-8.7716,-18.657,-49.944,8.57E+07
7179,-13.75,-20,-47.889,9.42E+07
7180,-15.596,-19.686,-50.616,8.09E+07
7181,-15.581,-20,-46.155,7.87E+07
7182,-14.471,-18.433,-46.309,8.07E+07
7183,-17.007,-18.973,-46.531,5.15E+07
7184,-17.127,-19.095,-47.565,5.58E+07
7185,-14.856,-17.725,-48.305,9.72E+07
7186,-15.949,-17.882,-46.694,7.49E+07
7187,-16.484,-17.625,-47.83,9.30E+07
7188,-16.91,-18.645,-48.985,6.14E+07
7189,-10.25,-20,-46.08,1.31E+08
7190,-12.043,-20,-44.704,1.03E+08
7191,-10.25,-19.864,-49.689,8.01E+07
7192,-11.854,-19.661,-50.723,9.64E+07
7193,-13.846,-19.686,-50.616,8.75E+07
7194,-13.831,-20,-46.155,8.72E+07
7195,-12.721,-18.433,-46.309,8.79E+07
7196,-10.855,-18.091,-47.365,1.08E+08
7197,-10.192,-19.212,-46.816,1.21E+08
7198,-11.232,-17.674,-50.347,1.01E+08
7199,-13.106,-17.725,-48.305,1.03E+08
7200,-11.437,-19.027,-46.165,9.93E+07
7201,-10.522,-18.657,-49.944,8.73E+07
7202,-8.354,-20,-43.346,1.91E+08
7203,-10.293,-20,-42.895,1.35E+08
7204,-7.926,-19.886,-44.272,2.03E+08
7205,-8.5136,-18.907,-43.781,1.36E+08
7206,-8.4422,-19.212,-45.007,1.54E+08
7207,-9.6874,-19.027,-44.356,1.29E+08
7208,-10.023,-20,-42.065,1.63E+08
7209,-6.7792,-19.968,-41.886,1.76E+08
7210,-7.5874,-20.37,-40.651,1.73E+08
7211,-7.6588,-19.84,-43.401,2.27E+08
7212,-7.3171,-19.854,-42.764,2.45E+08
7213,-8.5487,-18.571,-41.006,1.42E+08
7214,-8.2306,-18.907,-42.9,1.65E+08
7215,-7.228,-19.041,-41.929,1.73E+08
7216,-20,-20,-38.461,1.07E+08
7217,-20,-18.75,-36.867,1.64E+08
7218,-20,-20.204,-36.812,1.81E+08
7219,-20,-20,-36.857,1.68E+08
7220,-20,-18.75,-38.593,1.18E+08
7221,-17.061,-20.399,-37.595,1.02E+08
7222,-19.047,-20,-38.821,9.05E+07
7223,-14.122,-20,-40.871,7.14E+07
7224,-15.133,-20.375,-38.472,8.96E+07
7225,-15.892,-20,-42.273,5.58E+07
7226,-17.108,-20,-39.714,5.20E+07
7227,-17.855,-20,-40.34,3.27E+07
7228,-16.845,-18.61,-41.143,4.07E+07
7229,-16.293,-18.869,-38.805,7.60E+07
7230,-17.623,-19.038,-40.205,4.25E+07
7231,-9.6578,-20.39,-40.162,1.26E+08
7232,-13.123,-20.389,-39.169,1.00E+08
7233,-13.874,-20,-42.97,8.93E+07
7234,-12.765,-18.433,-43.124,8.68E+07
7235,-14.827,-18.61,-41.84,4.83E+07
7236,-14.275,-18.869,-39.502,7.61E+07
7237,-10.625,-18.571,-40.512,9.15E+07
7238,-10.307,-18.907,-42.405,1.10E+08
7239,-12.337,-18.473,-39.883,8.04E+07
7240,-13.466,-16.964,-40.842,6.14E+07
7241,-11.481,-19.027,-42.98,1.01E+08
7242,-11.055,-17.781,-42.035,8.87E+07
7243,-20,-18.75,-38.715,9.74E+07
7244,-19.967,-19.922,-40.61,5.24E+07
7245,-19.042,-20,-38.932,6.46E+07
7246,-19.8,-20,-39.571,5.96E+07
7247,-19.562,-19.038,-39.434,7.35E+07
7248,36.583,-9.2543,-59.823,1.37E+07
7249,39,-11.408,-59.395,6.79E+06
7250,39,-7.2169,-60.037,5.68E+06
7251,39.383,-9.2464,-59.747,6.13E+06
7252,39.542,-10.096,-59.542,5.42E+06
7253,39.453,-8.4692,-59.796,4.71E+06
7254,38.636,-8.724,-58.992,6.72E+06
7255,38.571,-9.7984,-58.525,7.36E+06
7256,-11.75,-9.2543,-59.823,1.19E+08
7257,-12.927,-11.39,-59.4,1.05E+08
7258,-14.74,-12.336,-59.078,9.40E+07
7259,-14.339,-7.4369,-60.014,1.46E+08
7260,-13.73,-10.261,-57.419,1.11E+08
7261,-15.979,-10.321,-58.264,9.07E+07
7262,-15.96,-8.3153,-59.041,1.04E+08
7263,-13.833,-8.5155,-57.318,1.24E+08
7264,-6.9167,-9.2543,-59.823,1.75E+08
7265,-7.4167,-10.645,-59.594,1.32E+08
7266,-8.5614,-11.283,-59.431,1.06E+08
7267,-10.51,-11.39,-59.4,1.10E+08
7268,-9.6395,-6.1142,-60.153,2.06E+08
7269,-11.923,-7.4369,-60.014,1.50E+08
7270,-9.0521,-7.807,-57.203,1.47E+08
7271,-11.314,-10.261,-57.419,1.13E+08
7272,-7.014,-9.2802,-57.827,1.51E+08
7273,-9.1345,-11.766,-58.411,1.10E+08
7274,-10.933,-6.3496,-58.033,1.57E+08
7275,-9.574,-10.613,-56.047,1.13E+08
7276,-7.8317,-7.1291,-58.543,1.84E+08
7277,-11.416,-8.5155,-57.318,1.27E+08
7278,-7.4719,-10.553,-58.725,1.31E+08
7279,-9.1965,-10.848,-56.645,1.10E+08
7280,-2.0833,-9.2543,-59.823,2.34E+08
7281,-5,-10.645,-59.594,1.77E+08
7282,-3.1667,-10.645,-59.594,1.62E+08
7283,-7.2228,-6.1142,-60.153,2.48E+08
7284,-3.5286,-6.9529,-60.065,2.82E+08
7285,-4.5973,-9.2802,-57.827,1.95E+08
7286,-2.3723,-9.3442,-58.142,2.02E+08
7287,-5.415,-7.1291,-58.543,2.27E+08
7288,-5.0552,-10.553,-58.725,1.73E+08
7289,2.75,-9.2543,-59.823,2.44E+08
7290,-0.75,-10.645,-59.594,1.75E+08
7291,1.0833,-10.645,-59.594,1.84E+08
7292,1.1082,-6.6328,-60.099,3.11E+08
7293,-1.1119,-6.9529,-60.065,2.96E+08
7294,4.44E-02,-9.3442,-58.142,2.15E+08
7295,2.0554,-9.759,-58.359,2.19E+08
7296,1.5728,-7.7274,-58.293,2.50E+08
7297,7.5833,-9.2543,-59.823,1.98E+08
7298,5.3333,-10.645,-59.594,2.14E+08
7299,3.5,-10.645,-59.594,1.81E+08
7300,3.5248,-6.6328,-60.099,3.07E+08
7301,5.8438,-6.4495,-60.118,2.98E+08
7302,6.1979,-8.0907,-57.746,2.16E+08
7303,4.4721,-9.759,-58.359,2.16E+08
7304,6.0455,-10.36,-58.566,1.89E+08
7305,3.9895,-7.7274,-58.293,2.47E+08
7306,12.417,-9.2543,-59.823,1.57E+08
7307,7.75,-10.645,-59.594,1.77E+08
7308,8.8947,-11.283,-59.431,1.62E+08
7309,11.301,-11.502,-59.367,1.50E+08
7310,11.034,-6.1933,-60.145,2.39E+08
7311,8.2605,-6.4495,-60.118,2.53E+08
7312,8.6146,-8.0907,-57.746,1.73E+08
7313,8.4621,-10.36,-58.566,1.51E+08
7314,9.5,-11.346,-58.18,1.59E+08
7315,11.183,-9.8087,-57.32,1.43E+08
7316,9.3199,-9.8674,-56.732,1.39E+08
7317,10.632,-7.8402,-57.815,1.66E+08
7318,17.25,-9.2543,-59.823,1.35E+08
7319,13.718,-11.502,-59.367,1.53E+08
7320,16.101,-11.147,-59.469,1.39E+08
7321,13.45,-6.1933,-60.145,2.29E+08
7322,15.961,-6.9432,-60.066,1.96E+08
7323,15.989,-7.9441,-57.993,1.48E+08
7324,14.454,-6.0821,-58.433,1.90E+08
7325,13.6,-9.8087,-57.32,1.42E+08
7326,15.327,-10.616,-57.396,1.32E+08
7327,13.049,-7.8402,-57.815,1.59E+08
7328,22.083,-9.2543,-59.823,8.72E+07
7329,18.518,-11.147,-59.469,1.16E+08
7330,20.351,-11.705,-59.303,9.86E+07
7331,18.378,-6.9432,-60.066,1.71E+08
7332,20.5,-7.2169,-60.037,1.22E+08
7333,18.406,-7.9441,-57.993,1.22E+08
7334,21.649,-7.5927,-58.08,9.08E+07
7335,21.396,-10.28,-57.634,8.52E+07
7336,17.743,-10.616,-57.396,1.06E+08
7337,19.664,-11.4,-56.994,9.17E+07
7338,19.821,-8.769,-56.557,9.93E+07
7339,26.917,-9.2543,-59.823,5.01E+07
7340,22.768,-11.705,-59.303,6.98E+07
7341,25.311,-11.409,-59.394,5.28E+07
7342,22.917,-7.2169,-60.037,9.79E+07
7343,25.481,-7.0464,-60.055,5.89E+07
7344,24.066,-7.5927,-58.08,6.50E+07
7345,25.782,-9.2868,-57.754,4.61E+07
7346,23.813,-10.28,-57.634,5.72E+07
7347,31.75,-9.2543,-59.823,2.83E+07
7348,27.728,-11.409,-59.394,3.63E+07
7349,29.905,-11.08,-59.487,3.07E+07
7350,30.958,-7.2169,-60.037,2.74E+07
7351,27.897,-7.0464,-60.055,4.51E+07
7352,28.199,-9.2868,-57.754,3.04E+07
7353,29.134,-6.5956,-58.882,3.30E+07
7354,30.503,-9.3791,-58.344,2.75E+07
7355,36.583,-11.408,-59.395,1.34E+07
7356,36.583,-7.2169,-60.037,1.23E+07
7357,34.132,-12.103,-59.165,1.69E+07
7358,32.322,-11.08,-59.487,2.06E+07
7359,35.277,-9.5251,-57.657,1.27E+07
7360,33.375,-7.2169,-60.037,1.96E+07
7361,35.08,-7.6271,-58.348,1.30E+07
7362,36.22,-8.724,-58.992,1.31E+07
7363,32.92,-9.3791,-58.344,1.84E+07
7364,36.154,-9.7984,-58.525,1.31E+07
7365,39,-19.799,-50.076,1.08E+07
7366,36.821,-20,-47.889,1.05E+07
7367,39.383,-19.924,-47.889,1.25E+07
7368,39,-20,-45.455,7.72E+06
7369,39.356,-19.908,-48.689,1.20E+07
7370,39.413,-19.911,-47.019,1.17E+07
7371,37.002,-20,-46.047,1.20E+07
7372,37.608,-18.242,-47.275,8.14E+06
7373,38.665,-19.12,-48.709,9.63E+06
7374,39,-18.232,-54.159,8.54E+06
7375,36.821,-19.799,-50.076,9.11E+06
7376,39.707,-18.93,-52.084,1.17E+07
7377,39.347,-19.563,-50.856,1.13E+07
7378,39.458,-18.649,-53.175,1.00E+07
7379,39.415,-19.307,-51.631,1.10E+07
7380,36.297,-18.685,-53.35,1.09E+07
7381,37.764,-17.504,-51.263,6.91E+06
7382,38.114,-16.64,-53.981,8.23E+06
7383,38.665,-18.722,-50.86,9.01E+06
7384,39,-15.305,-57.409,7.07E+06
7385,39.707,-16.7,-55.722,7.75E+06
7386,39.407,-15.991,-56.724,6.34E+06
7387,39.455,-17.484,-55.061,8.23E+06
7388,36.297,-17.511,-55.206,9.68E+06
7389,36.549,-15.872,-56.946,1.05E+07
7390,38.114,-15.498,-55.845,7.97E+06
7391,39.558,-12.236,-58.935,5.41E+06
7392,39.396,-14.227,-58.051,5.51E+06
7393,36.549,-14.09,-58.229,1.07E+07
7394,38.114,-13.763,-57.177,6.63E+06
7395,38.571,-11.895,-57.904,7.42E+06
7396,10.679,-20,-47.889,2.65E+07
7397,8.5,-19.864,-49.689,9.11E+06
7398,8.5,-20,-46.08,2.65E+07
7399,7.926,-19.886,-46.08,2.56E+07
7400,7.926,-19.886,-47.889,4.50E+06
7401,7.7054,-19.718,-49.019,4.89E+06
7402,8.5528,-19.123,-46.911,2.30E+07
7403,8.8674,-18.889,-48.455,2.14E+07
7404,15.036,-20,-47.889,5.01E+07
7405,10.679,-19.864,-49.689,2.69E+07
7406,10.679,-20,-46.08,4.37E+07
7407,12.958,-19.677,-50.655,5.58E+07
7408,14.978,-19.888,-49.527,5.20E+07
7409,13.812,-20,-46.279,5.10E+07
7410,10.731,-19.123,-46.911,4.11E+07
7411,11.046,-18.889,-48.455,3.88E+07
7412,14.134,-17.844,-49.858,6.21E+07
7413,12.112,-18.575,-46.18,5.82E+07
7414,14.051,-18.214,-47.662,5.98E+07
7415,12.27,-17.89,-48.184,6.27E+07
7416,19.393,-20,-47.889,5.22E+07
7417,17.156,-19.888,-49.527,5.83E+07
7418,15.991,-20,-46.279,5.37E+07
7419,18.121,-20,-45.847,5.47E+07
7420,18.172,-18.148,-48.604,6.08E+07
7421,16.229,-18.214,-47.662,6.35E+07
7422,17.677,-17.793,-46.741,6.38E+07
7423,23.75,-20,-47.889,4.41E+07
7424,19.335,-19.888,-49.527,5.62E+07
7425,23.186,-19.737,-50.388,4.45E+07
7426,21.074,-19.705,-50.535,5.45E+07
7427,22.513,-20,-45.687,4.98E+07
7428,20.299,-20,-45.847,5.11E+07
7429,20.35,-18.148,-48.604,5.77E+07
7430,21.851,-17.68,-49.62,5.50E+07
7431,22.258,-18.342,-47.274,5.29E+07
7432,19.856,-17.793,-46.741,5.99E+07
7433,28.107,-20,-47.889,3.20E+07
7434,25.365,-19.737,-50.388,3.96E+07
7435,27.457,-19.738,-50.381,2.98E+07
7436,24.692,-20,-45.687,4.41E+07
7437,26.865,-20,-45.697,4.05E+07
7438,26.199,-17.754,-48.835,4.13E+07
7439,26.874,-18.083,-46.631,4.17E+07
7440,24.436,-18.342,-47.274,4.71E+07
7441,32.464,-20,-47.889,1.85E+07
7442,31.94,-19.502,-51.312,1.43E+07
7443,29.635,-19.738,-50.381,2.33E+07
7444,31.006,-20,-45.389,2.96E+07
7445,29.044,-20,-45.697,3.41E+07
7446,32.644,-20,-46.047,2.23E+07
7447,28.377,-17.754,-48.835,3.48E+07
7448,30.634,-17.531,-49.109,2.61E+07
7449,33.251,-18.242,-47.275,1.89E+07
7450,29.052,-18.083,-46.631,3.58E+07
7451,31.364,-17.349,-46.316,3.05E+07
7452,34.118,-19.502,-51.312,8.90E+06
7453,34.823,-20,-46.047,1.54E+07
7454,32.813,-17.531,-49.109,1.91E+07
7455,35.586,-17.903,-49.113,9.94E+06
7456,35.429,-18.242,-47.275,1.21E+07
7457,36.486,-19.12,-48.709,9.13E+06
7458,8.5,-16.758,-56.092,5.78E+07
7459,8.3368,-14.314,-58.095,1.25E+08
7460,7.926,-15.358,-57.223,7.93E+07
7461,7.7819,-14.56,-57.775,1.63E+08
7462,7.7758,-16.4,-56.196,4.84E+07
7463,10.551,-14.551,-57.943,1.09E+08
7464,10.247,-16.088,-56.753,9.48E+07
7465,8.75,-14.433,-56.925,1.23E+08
7466,9.4272,-15.208,-55.416,1.02E+08
7467,8.5,-18.797,-53.126,1.95E+07
7468,7.8143,-17.597,-54.813,2.79E+07
7469,7.7333,-18.296,-53.631,1.48E+07
7470,10.247,-17.326,-55.44,6.25E+07
7471,10.779,-18.331,-53.993,4.64E+07
7472,9.4272,-16.438,-54.102,6.90E+07
7473,7.7245,-19.409,-50.839,6.26E+06
7474,7.7497,-19.074,-51.96,1.12E+07
7475,10.779,-19.13,-52.375,3.59E+07
7476,9.4272,-17.224,-52.483,5.72E+07
7477,8.8674,-18.619,-50.235,2.20E+07
7478,6.8071,-12.349,-59.076,1.79E+08
7479,3.6667,-12,-59.203,1.63E+08
7480,5.5,-12.405,-58.985,2.17E+08
7481,4.6388,-11.132,-58.049,1.96E+08
7482,6.2121,-11.733,-58.255,1.72E+08
7483,6.6516,-12.95,-58.656,2.03E+08
7484,7.4339,-13.471,-58.486,1.98E+08
7485,10.196,-13.419,-58.596,1.50E+08
7486,7.3569,-12.34,-58.003,1.57E+08
7487,8.3948,-13.326,-57.617,1.62E+08
7488,-3.6667,-12,-59.203,1.21E+08
7489,-6.8071,-12.349,-59.076,1.12E+08
7490,-5.5,-12.405,-58.985,1.32E+08
7491,-5.5552,-11.926,-58.415,1.41E+08
7492,-4.34E-16,-12,-59.203,1.16E+08
7493,-1.8333,-12.725,-58.654,8.44E+07
7494,-3.6667,-12.405,-58.985,1.17E+08
7495,-3.264,-10.653,-57.517,1.43E+08
7496,-1.0389,-10.717,-57.831,1.48E+08
7497,-3.7219,-11.926,-58.415,1.24E+08
7498,1.8333,-12.725,-58.654,1.16E+08
7499,0,-12.725,-58.654,9.25E+07
7500,3.6667,-12.405,-58.985,1.88E+08
7501,0.79439,-10.717,-57.831,1.56E+08
7502,2.8054,-11.132,-58.049,1.64E+08
7503,-8.3368,-14.314,-58.095,8.58E+07
7504,-8.5,-16.758,-56.092,6.48E+07
7505,-7.926,-15.358,-57.223,6.49E+07
7506,-7.7819,-14.56,-57.775,1.12E+08
7507,-10.094,-14.453,-58.006,9.00E+07
7508,-10.338,-16.103,-56.74,9.51E+07
7509,-9.4818,-15.388,-55.059,9.64E+07
7510,-8.7178,-14.853,-57.156,9.17E+07
7511,-6.6516,-12.95,-58.656,1.17E+08
7512,-7.4339,-13.471,-58.486,1.24E+08
7513,-9.7383,-13.314,-58.648,9.28E+07
7514,-8.3626,-13.746,-57.848,9.73E+07
7515,-6.7,-12.534,-58.162,1.20E+08
7516,-8.4245,-12.828,-56.081,1.05E+08
7517,-8.5,-18.797,-53.126,5.61E+07
7518,-7.6565,-19.328,-50.973,7.02E+07
7519,-7.5841,-18.482,-53.058,4.88E+07
7520,-10.104,-19.104,-52.44,7.75E+07
7521,-8.7716,-18.387,-51.724,6.79E+07
7522,-7.3464,-16.442,-55.637,7.02E+07
7523,-7.8705,-16.68,-55.973,4.89E+07
7524,-7.7875,-17.42,-54.564,4.35E+07
7525,-10.104,-18.295,-54.054,7.72E+07
7526,-10.338,-17.338,-55.425,8.06E+07
7527,-9.4818,-16.619,-53.746,8.28E+07
7528,-8.7716,-17.602,-53.343,6.37E+07
7529,-16.5,14.35,-62.304,7.69E+07
7530,-17.07,12.166,-61.949,1.32E+08
7531,-17.065,12.153,-62.073,1.05E+08
7532,-14.573,12.976,-62.16,7.48E+07
7533,-16.14,11.284,-61.982,1.22E+08
7534,-16.067,13.053,-60.847,1.02E+08
7535,-16.5,36.312,-64.612,7.04E+05
7536,-14.25,38.508,-64.843,1.86E+06
7537,-16.5,39.091,-64.79,9.07E+05
7538,-17.074,38.52,-64.73,9.69E+05
7539,-15.99,38.286,-63.59,1.43E+06
7540,-16.5,31.92,-64.151,3.50E+06
7541,-14.25,36.312,-64.612,1.33E+06
7542,-17.074,36.324,-64.499,4.15E+05
7543,-17.561,34.162,-63.945,1.79E+06
7544,-14.531,32.867,-64.25,2.45E+06
7545,-15.846,34.301,-63.054,2.11E+06
7546,-15.99,36.09,-63.36,1.09E+06
7547,-16.5,27.527,-63.689,7.53E+06
7548,-17.561,29.769,-63.483,7.52E+06
7549,-17.561,31.965,-63.714,4.66E+06
7550,-14.494,30.878,-61.517,6.54E+06
7551,-14.531,30.67,-64.019,5.58E+06
7552,-14.898,28.609,-63.803,1.11E+07
7553,-15.11,28.796,-62.385,9.93E+06
7554,-15.846,32.104,-62.823,4.15E+06
7555,-16.5,23.135,-63.227,1.83E+07
7556,-17.561,25.377,-63.021,5.48E+06
7557,-17.561,27.573,-63.252,7.42E+06
7558,-14.082,24.644,-63.386,2.42E+07
7559,-14.898,26.412,-63.572,1.27E+07
7560,-15.569,24.282,-62.181,2.26E+07
7561,-15.11,26.6,-62.155,1.18E+07
7562,-16.5,18.742,-62.766,4.06E+07
7563,-17.561,20.984,-62.56,2.87E+07
7564,-17.561,23.18,-62.79,1.61E+07
7565,-14.082,22.448,-63.155,2.85E+07
7566,-14.575,19.959,-62.894,4.40E+07
7567,-15.712,19.883,-61.197,5.43E+07
7568,-15.569,22.086,-61.951,3.19E+07
7569,-17.074,14.362,-62.19,1.13E+08
7570,-17.561,18.788,-62.329,4.55E+07
7571,-14.573,15.172,-62.39,6.15E+07
7572,-14.575,17.763,-62.663,4.30E+07
7573,-16.067,15.249,-61.078,8.52E+07
7574,-15.712,17.687,-60.966,6.20E+07
7575,-5.25,38.508,-64.843,6.06E+05
7576,-3,36.642,-64.647,2.34E+06
7577,-3,39.091,-64.79,9.52E+05
7578,-2.426,38.52,-64.73,1.29E+06
7579,-3.6519,37.969,-63.428,8.17E+05
7580,-9.75,38.508,-64.843,1.70E+06
7581,-5.25,36.642,-64.647,1.55E+06
7582,-5.25,39.091,-64.79,4.22E+05
7583,-7.5,39.609,-64.517,1.47E+06
7584,-8.5412,39.091,-64.79,1.46E+06
7585,-7.6825,35.897,-64.569,8.37E+05
7586,-9.0671,37.997,-63.369,1.69E+06
7587,-5.9019,37.969,-63.428,1.01E+06
7588,-14.25,39.091,-64.79,1.57E+06
7589,-12,39.609,-64.517,2.01E+06
7590,-10.791,39.091,-64.79,2.10E+06
7591,-9.9325,35.897,-64.569,1.40E+06
7592,-12.281,35.063,-64.481,1.32E+06
7593,-13.596,36.497,-63.285,1.89E+06
7594,-11.317,37.997,-63.369,2.51E+06
7595,-13.74,38.286,-63.59,2.01E+06
7596,-3,25.442,-63.47,4.95E+07
7597,-5.0412,22.552,-63.166,5.11E+07
7598,-2.4407,23.764,-63.185,9.57E+07
7599,-3.2626,23.592,-62.189,7.36E+07
7600,-4.8789,24.637,-63.385,5.12E+07
7601,-3,29.175,-63.862,2.08E+07
7602,-1.9393,25.682,-63.053,7.13E+07
7603,-1.9393,28.106,-63.308,2.53E+07
7604,-2.4342,25.603,-63.375,7.17E+07
7605,-3.261,25.454,-62.385,4.08E+07
7606,-4.8789,26.503,-63.581,2.03E+07
7607,-4.5596,28.285,-63.769,2.12E+07
7608,-3.812,26.946,-61.432,3.11E+07
7609,-3.6408,29.379,-62.594,2.20E+07
7610,-3,32.909,-64.255,3.75E+06
7611,-1.9393,32.397,-63.759,4.72E+06
7612,-1.9393,29.972,-63.504,1.42E+07
7613,-5.4325,32.164,-64.176,3.11E+06
7614,-4.5596,30.151,-63.965,5.61E+06
7615,-3.6408,31.245,-62.79,6.84E+06
7616,-2.426,36.654,-64.533,2.12E+06
7617,-1.9393,34.263,-63.955,3.87E+06
7618,-5.4325,34.031,-64.373,1.58E+06
7619,-3.6408,33.112,-62.986,3.54E+06
7620,-3.6519,36.102,-63.232,1.66E+06
7621,5.0412,22.552,-63.166,4.81E+07
7622,3,25.442,-63.47,5.73E+07
7623,2.4407,23.764,-63.185,9.52E+07
7624,3.2576,23.597,-62.158,7.30E+07
7625,4.8789,24.637,-63.385,5.59E+07
7626,3.6263,24.715,-61.819,6.90E+07
7627,-8.0369,19.165,-62.81,7.50E+07
7628,-5.2707,22.505,-62.075,5.82E+07
7629,-7.5826,20.185,-60.741,9.91E+07
7630,-6.3147,21.787,-60.464,8.11E+07
7631,-9.2109,22.504,-63.161,5.43E+07
7632,-9.7031,20.015,-62.899,5.93E+07
7633,-6.7574,23.374,-63.252,5.28E+07
7634,-8.6334,21.292,-60.983,7.10E+07
7635,-8.0739,23.749,-61.412,5.48E+07
7636,-8.9918,14.756,-62.347,1.60E+08
7637,-8.5595,18.129,-60.525,1.13E+08
7638,-8.9835,15.971,-59.667,1.60E+08
7639,-10.722,15.41,-62.415,7.64E+07
7640,-10.724,18.001,-62.688,8.44E+07
7641,-10.187,16.716,-60.842,1.13E+08
7642,-9.6539,19.278,-60.771,8.89E+07
7643,-7.6634,10.443,-61.893,4.13E+08
7644,-8.8309,13.702,-59.429,2.14E+08
7645,-7.9618,11.251,-59.21,3.29E+08
7646,-10.625,13.157,-62.179,1.64E+08
7647,-9.7368,10.708,-61.921,2.51E+08
7648,-10.648,12.134,-60.1,2.11E+08
7649,-10.09,14.462,-60.605,1.71E+08
7650,-4.389,7.3227,-61.565,7.09E+08
7651,-6.6476,9.391,-59.014,4.98E+08
7652,-4.9045,7.9199,-58.859,6.13E+08
7653,-6.4496,5.7123,-61.396,4.81E+08
7654,-8.5477,8.7874,-61.719,4.59E+08
7655,-7.9414,7.1174,-61.544,4.74E+08
7656,-6.8146,7.0475,-59.888,4.94E+08
7657,6.17E-14,6.1863,-61.446,8.48E+08
7658,-2.8449,6.933,-58.756,7.54E+08
7659,-0.69237,6.479,-58.916,7.82E+08
7660,-4.4699,4.6125,-61.281,6.62E+08
7661,-1.8341,3.8535,-61.201,6.76E+08
7662,-2.801,4.9119,-59.036,6.41E+08
7663,-0.97547,5.0443,-59.821,6.82E+08
7664,-4.8348,5.9477,-59.772,6.43E+08
7665,4.389,7.3227,-61.565,7.52E+08
7666,1.5909,6.5934,-58.928,8.21E+08
7667,3.763,7.2714,-59.008,6.94E+08
7668,4.8762,4.5867,-61.278,7.19E+08
7669,0.4335,3.8535,-61.201,6.89E+08
7670,2.7388,3.8359,-61.199,7.07E+08
7671,1.2922,5.0443,-59.821,7.04E+08
7672,3.1332,5.0757,-58.953,6.78E+08
7673,4.3542,5.8389,-59.937,7.15E+08
7674,7.6634,10.443,-61.893,4.72E+08
7675,5.7015,8.4767,-59.135,5.97E+08
7676,7.215,10.049,-59.322,4.40E+08
7677,6.8559,5.6864,-61.393,5.54E+08
7678,9.5071,8.6345,-61.703,4.54E+08
7679,8.0889,8.9486,-60.005,4.97E+08
7680,6.334,6.9387,-60.053,5.69E+08
7681,8.9918,14.756,-62.347,1.77E+08
7682,8.3378,12.03,-59.531,2.96E+08
7683,8.8984,14.046,-59.866,1.79E+08
7684,10.696,10.555,-61.905,2.71E+08
7685,10.579,13.523,-62.217,1.83E+08
7686,9.278,10.869,-60.207,3.26E+08
7687,8.0369,19.165,-62.81,3.62E+07
7688,8.9511,16.319,-60.105,1.04E+08
7689,8.5756,18.091,-60.41,6.94E+07
7690,10.675,15.776,-62.454,6.69E+07
7691,10.464,18.014,-62.689,5.12E+07
7692,10.629,17.532,-60.997,6.58E+07
7693,9.5357,19.306,-60.754,5.16E+07
7694,5.2664,22.511,-62.044,4.95E+07
7695,6.229,21.937,-59.836,7.31E+07
7696,7.6107,20.152,-60.626,7.11E+07
7697,9.2109,22.504,-63.161,4.16E+07
7698,9.4429,20.028,-62.901,4.92E+07
7699,6.7574,23.374,-63.252,4.01E+07
7700,8.5151,21.32,-60.966,5.54E+07
7701,7.274,23.189,-60.868,4.99E+07
7702,3,36.642,-64.647,1.76E+06
7703,5.25,38.508,-64.843,6.56E+05
7704,3,39.091,-64.79,1.29E+06
7705,2.426,38.52,-64.73,2.17E+06
7706,3.7643,38.205,-63.548,7.44E+05
7707,3,32.909,-64.255,5.34E+06
7708,5.25,36.642,-64.647,7.73E+05
7709,2.426,36.654,-64.533,1.76E+06
7710,2.3801,33.345,-64.166,6.00E+06
7711,5.4325,34.031,-64.373,1.04E+06
7712,3.927,33.793,-62.734,4.90E+06
7713,3.7643,36.339,-63.352,8.84E+05
7714,3,29.175,-63.862,2.61E+07
7715,2.25,30.005,-63.195,2.14E+07
7716,2.3939,31.482,-63.939,8.45E+06
7717,5.4325,32.164,-64.176,4.53E+06
7718,4.5596,30.151,-63.965,8.06E+06
7719,3.927,31.926,-62.538,7.47E+06
7720,2.25,28.138,-62.999,3.75E+07
7721,2.4446,25.606,-63.35,7.51E+07
7722,2.4043,29.617,-63.72,2.19E+07
7723,4.8789,26.503,-63.581,2.73E+07
7724,4.5596,28.285,-63.769,2.80E+07
7725,3.6263,26.582,-62.015,3.98E+07
7726,14.25,38.508,-64.843,2.38E+06
7727,16.5,36.312,-64.612,6.89E+05
7728,17.074,38.52,-64.73,1.51E+06
7729,16.5,39.091,-64.79,1.22E+06
7730,15.829,37.924,-63.269,1.97E+06
7731,9.75,38.508,-64.843,2.23E+06
7732,14.25,36.312,-64.612,1.51E+06
7733,14.25,39.091,-64.79,1.94E+06
7734,12,39.609,-64.517,2.54E+06
7735,10.959,39.091,-64.79,2.61E+06
7736,9.9325,35.897,-64.569,2.97E+06
7737,12.281,35.063,-64.481,2.18E+06
7738,11.38,36.638,-62.595,4.85E+06
7739,13.579,37.924,-63.269,2.79E+06
7740,10.599,38.16,-63.439,3.51E+06
7741,5.25,39.091,-64.79,5.58E+05
7742,7.5,39.609,-64.517,1.76E+06
7743,8.7088,39.091,-64.79,1.68E+06
7744,7.6825,35.897,-64.569,2.18E+06
7745,6.0143,38.205,-63.548,1.38E+06
7746,8.3495,38.16,-63.439,2.75E+06
7747,16.5,14.35,-62.304,3.41E+07
7748,17.75,10.098,-61.857,6.43E+07
7749,17.262,12.175,-61.866,6.94E+07
7750,17.03,12.153,-62.073,5.36E+07
7751,14.644,10.374,-61.886,1.78E+08
7752,14.526,13.342,-62.198,6.46E+07
7753,15.794,13.085,-60.703,5.80E+07
7754,17.383,10.515,-61.521,7.17E+07
7755,16.826,11.266,-61.121,9.15E+07
7756,16.5,18.742,-62.766,2.11E+07
7757,17.561,16.592,-62.098,2.62E+07
7758,17.262,14.371,-62.097,4.26E+07
7759,17.043,17.691,-62.553,1.31E+07
7760,14.526,15.538,-62.429,4.19E+07
7761,14.314,17.777,-62.664,3.71E+07
7762,15.794,15.281,-60.934,3.17E+07
7763,16.057,17.476,-61.79,2.76E+07
7764,16.5,23.135,-63.227,2.10E+07
7765,17.043,19.887,-62.784,1.49E+07
7766,14.082,22.448,-63.155,2.87E+07
7767,14.314,19.973,-62.895,3.97E+07
7768,15.755,21.892,-61.778,2.78E+07
7769,16.057,19.672,-62.02,3.05E+07
7770,16.5,27.527,-63.689,1.70E+07
7771,17.561,25.377,-63.021,1.77E+07
7772,17.561,23.18,-62.79,9.56E+06
7773,17.043,22.083,-63.015,1.13E+07
7774,17.043,26.476,-63.476,1.96E+07
7775,14.082,24.644,-63.386,2.76E+07
7776,14.898,26.412,-63.572,1.94E+07
7777,15.755,24.088,-62.009,2.36E+07
7778,15.857,28.713,-62.051,1.38E+07
7779,16.42,26.236,-61.871,1.64E+07
7780,16.5,31.92,-64.151,7.51E+06
7781,17.043,28.672,-63.707,1.66E+07
7782,14.531,30.67,-64.019,9.33E+06
7783,14.898,28.609,-63.803,1.62E+07
7784,15.857,30.909,-62.282,1.12E+07
7785,17.074,36.324,-64.499,5.22E+05
7786,17.561,34.162,-63.945,3.24E+06
7787,17.561,31.965,-63.714,9.49E+06
7788,17.043,30.868,-63.938,1.02E+07
7789,14.531,32.867,-64.25,3.24E+06
7790,15.857,33.105,-62.513,6.42E+06
7791,15.829,35.728,-63.038,1.95E+06
7792,19,10.098,-61.857,1.98E+07
7793,19,12.415,-59.587,6.47E+07
7794,19.552,12.005,-61.89,3.19E+07
7795,18.5,12.232,-61.327,6.14E+07
7796,18.406,12.194,-61.688,5.44E+07
7797,18.28,12.153,-62.073,3.27E+07
7798,18.633,10.515,-61.521,3.08E+07
7799,19.217,11.945,-61.779,3.06E+07
7800,19,5.4693,-61.371,1.43E+08
7801,19.303,1.3685,-60.94,2.39E+08
7802,19.383,2.9034,-61.024,1.91E+08
7803,19.425,4.2143,-61.144,1.57E+08
7804,16.121,2.8462,-61.095,3.25E+08
7805,17.484,1.183,-60.92,2.92E+08
7806,18.553,1.7902,-59.213,2.51E+08
7807,18.054,3.7552,-59.631,2.24E+08
7808,18.633,5.8856,-61.035,1.48E+08
7809,16.355,1.8728,-59.757,2.77E+08
7810,19.505,9.8586,-61.694,1.92E+07
7811,18.28,10.098,-61.857,3.31E+07
7812,19.425,6.7881,-61.414,6.50E+07
7813,15.894,8.3187,-61.67,1.62E+08
7814,16.121,5.42,-61.365,2.31E+08
7815,18.633,8.4594,-61.305,5.23E+07
7816,21.466,-0.79815,-60.712,1.99E+08
7817,25,-1.1045,-60.68,8.59E+07
7818,23,-0.55226,-60.182,1.79E+08
7819,23,-0.69098,-60.636,1.74E+08
7820,24.028,-0.58308,-60.594,1.13E+08
7821,22.167,-3.142,-60.466,1.29E+08
7822,24.731,-2.9715,-60.484,8.69E+07
7823,24.019,-1.6379,-59.535,1.12E+08
7824,21.703,-1.4795,-59.247,1.54E+08
7825,19.907,1.4897,-60.758,2.02E+08
7826,21.569,-0.15648,-60.567,2.50E+08
7827,20.442,0.49255,-60.721,2.56E+08
7828,18.629,-2.2802,-60.556,2.55E+08
7829,20.751,-2.5539,-60.527,1.92E+08
7830,18.069,-0.22897,-60.772,3.10E+08
7831,19.137,0.37823,-59.065,2.75E+08
7832,20.287,-0.89146,-59.308,2.31E+08
7833,37,-1.1045,-60.68,4.06E+06
7834,39,-3.142,-60.466,2.56E+06
7835,39.375,-1.0947,-60.587,1.05E+06
7836,39,-0.55226,-60.182,2.29E+06
7837,39,-0.69766,-60.616,1.58E+06
7838,39.354,-0.69871,-60.182,1.50E+06
7839,39.278,-2.1498,-60.53,1.27E+06
7840,38.06,-0.69882,-60.639,2.51E+06
7841,38.539,-1.5244,-59.747,2.21E+06
7842,33,-1.1045,-60.68,7.37E+06
7843,37,-3.142,-60.466,5.92E+06
7844,35,-0.55226,-60.182,2.91E+06
7845,36.06,-0.69882,-60.639,5.38E+06
7846,34.038,-0.69107,-60.636,4.69E+06
7847,33.792,-3.142,-60.466,1.21E+07
7848,36.539,-1.5244,-59.747,4.32E+06
7849,33.962,-1.6629,-59.183,1.12E+07
7850,35.231,-1.6487,-59.171,5.16E+06
7851,29,-1.1045,-60.68,2.45E+07
7852,31,-0.55226,-60.182,1.56E+07
7853,32.038,-0.69107,-60.636,7.28E+06
7854,30.038,-0.69107,-60.636,1.63E+07
7855,31.792,-3.142,-60.466,1.46E+07
7856,28.731,-2.9715,-60.484,3.16E+07
7857,31.962,-1.6629,-59.183,1.41E+07
7858,29.967,-2.5207,-59.31,2.47E+07
7859,26.028,-0.58308,-60.594,6.76E+07
7860,28.038,-0.69107,-60.636,3.28E+07
7861,26.731,-2.9715,-60.484,4.61E+07
7862,26.019,-1.6379,-59.535,6.71E+07
7863,27.967,-2.5207,-59.31,3.85E+07
7864,39.5,-5.1272,-59.754,3.69E+06
7865,39.278,-4.1873,-60.316,3.01E+06
7866,39.453,-6.4317,-60.011,3.22E+06
7867,35.792,-5.1794,-60.251,1.16E+07
7868,37.497,-5.5896,-58.563,4.82E+06
7869,38.636,-6.6866,-59.206,5.47E+06
7870,38.539,-3.5618,-59.533,3.45E+06
7871,37.231,-3.6862,-58.957,4.28E+06
7872,-17.07,14.231,-42.307,2.12E+08
7873,-18.25,11.986,-41.945,1.66E+08
7874,-16.5,16.44,-42.414,1.80E+08
7875,-17.03,14.244,-42.183,1.72E+08
7876,-15.496,11.15,-41.858,1.70E+08
7877,-14.526,15.433,-42.308,2.12E+08
7878,-14.557,13.438,-42.098,2.12E+08
7879,-16.279,11.39,-43.169,1.55E+08
7880,-16.109,14.949,-43.402,1.85E+08
7881,-14.967,13.847,-43.927,1.73E+08
7882,-17.023,12.937,-42.783,1.89E+08
7883,-17.886,14.147,-43.104,2.18E+08
7884,-18,13.865,-45.788,2.10E+08
7885,-18,16.283,-43.905,1.58E+08
7886,-16.859,14.87,-44.147,1.99E+08
7887,-17.773,12.859,-43.529,1.95E+08
7888,-18.5,14.083,-43.713,1.40E+08
7889,-17.074,16.428,-42.527,1.87E+08
7890,-17.886,16.343,-43.335,1.64E+08
7891,-17.561,14.221,-42.401,1.83E+08
7892,-16.639,14.926,-43.62,1.91E+08
7893,-17.554,12.914,-43.002,1.94E+08
7894,-18,12.532,-58.468,2.11E+08
7895,-17.886,12.25,-61.152,1.70E+08
7896,-18,14.506,-60.812,1.31E+08
7897,-16.89,11.362,-61.236,1.34E+08
7898,-18.424,12.037,-60.083,1.39E+08
7899,-17.532,11.047,-59.251,1.74E+08
7900,-16.817,13.131,-60.101,1.46E+08
7901,-18.146,10.619,-60.543,1.39E+08
7902,-18,12.977,-54.241,2.48E+08
7903,-18,14.729,-58.699,1.67E+08
7904,-18,15.59,-56.718,1.70E+08
7905,-17.836,11.317,-54.287,2.28E+08
7906,-15.945,13.856,-55.599,1.92E+08
7907,-17.532,11.269,-57.138,2.14E+08
7908,-15.345,12.253,-57.222,2.03E+08
7909,-16.817,13.353,-57.988,1.81E+08
7910,-16.51,11.571,-55.219,2.20E+08
7911,-18,13.421,-50.015,2.33E+08
7912,-18,16.793,-52.968,1.52E+08
7913,-18,16.16,-50.793,1.70E+08
7914,-18,15.812,-54.605,1.72E+08
7915,-15.14,12.826,-51.088,2.15E+08
7916,-17.836,11.539,-52.174,2.31E+08
7917,-15.945,14.079,-53.485,1.92E+08
7918,-16.739,11.018,-50.446,2.21E+08
7919,-16.864,14.726,-50.64,1.97E+08
7920,-16.51,11.793,-53.105,2.24E+08
7921,-16.82,16.108,-52.146,1.69E+08
7922,-18,16.061,-46.019,1.65E+08
7923,-18,16.382,-48.68,1.51E+08
7924,-15.14,13.048,-48.975,2.00E+08
7925,-17.836,11.761,-50.06,2.12E+08
7926,-16.859,14.648,-46.261,1.89E+08
7927,-15.717,13.547,-46.786,1.86E+08
7928,-16.739,11.24,-48.333,2.02E+08
7929,-16.864,14.948,-48.526,1.82E+08
7930,-17.773,12.637,-45.643,1.92E+08
7931,-17.886,14.446,-61.383,1.39E+08
7932,-17.886,16.643,-61.614,1.00E+08
7933,-17.596,12.176,-61.855,1.47E+08
7934,-16.671,11.306,-61.763,1.48E+08
7935,-16.598,13.075,-60.628,1.44E+08
7936,-16.243,15.513,-60.517,1.16E+08
7937,-17.926,10.563,-61.07,1.43E+08
7938,-20,4.4469,-41.153,1.08E+08
7939,-17.777,2.6864,-40.968,1.91E+08
7940,-20,2.3633,-40.916,3.22E+08
7941,-20,1.847,-41.331,4.17E+08
7942,-19.309,2.2892,-40.899,3.51E+08
7943,-20,2.7593,-42.55,2.71E+08
7944,-18.947,2.8116,-42.137,2.13E+08
7945,-20,7.9679,-41.523,1.24E+08
7946,-17.777,4.4469,-41.153,8.32E+07
7947,-20,6.511,-43.862,1.54E+08
7948,-20,4.5198,-42.735,2.02E+08
7949,-17.246,7.1322,-41.435,1.22E+08
7950,-18.947,4.5721,-42.322,1.32E+08
7951,-18.029,7.3718,-42.746,1.14E+08
7952,-18.78,11.986,-41.945,1.28E+08
7953,-20,8.2715,-44.047,1.65E+08
7954,-17.246,8.8927,-41.62,1.34E+08
7955,-18.029,9.1323,-42.931,1.26E+08
7956,-18.773,10.679,-42.546,1.57E+08
7957,17.793,2.6864,-40.968,1.90E+08
7958,20.004,2.843,-40.984,2.87E+08
7959,19.108,0.77057,-39.992,2.94E+08
7960,20.417,1.4751,-40.568,3.00E+08
7961,20.004,2.843,-43.373,3.51E+08
7962,20.245,1.8122,-43.334,3.56E+08
7963,18.439,2.1546,-42.285,2.60E+08
7964,18.74,-0.21033,-41.302,2.07E+08
7965,13.347,2.6864,-40.968,8.44E+07
7966,17.785,2.8432,-40.984,2.03E+08
7967,17.785,4.5514,-41.164,1.28E+08
7968,14.485,0.77057,-39.992,1.57E+08
7969,16.885,0.77057,-39.992,2.00E+08
7970,15.034,5.3913,-41.252,1.61E+08
7971,14.114,0.80731,-41.788,1.23E+08
7972,14.482,3.1419,-42.89,1.40E+08
7973,16.216,2.1546,-42.285,1.64E+08
7974,16.198,4.2273,-43.902,1.69E+08
7975,16.516,-0.21033,-41.302,1.17E+08
7976,8.9008,2.6864,-40.968,8.37E+07
7977,9.8614,0.77057,-39.992,1.03E+08
7978,12.262,0.77057,-39.992,1.52E+08
7979,12.811,5.3913,-41.252,1.63E+08
7980,9.8997,4.7061,-41.18,1.59E+08
7981,11.891,0.80731,-41.788,1.26E+08
7982,12.259,3.1419,-42.89,1.35E+08
7983,9.5381,1.0244,-41.869,1.13E+08
7984,10.399,2.5502,-43.101,1.36E+08
7985,4.4545,2.6864,-40.968,1.15E+08
7986,5.2381,0.77057,-39.992,7.71E+07
7987,7.6383,0.77057,-39.992,1.11E+08
7988,7.6766,4.7061,-41.18,1.70E+08
7989,5.5751,4.1562,-41.122,1.70E+08
7990,5.4567,0.90748,-41.669,1.13E+08
7991,6.4907,3.6094,-42.851,1.52E+08
7992,7.315,1.0244,-41.869,1.28E+08
7993,8.1761,2.5502,-43.101,1.44E+08
7994,8.22E-03,2.6864,-40.968,1.25E+08
7995,0.61476,0.77057,-39.992,7.72E+07
7996,3.0149,0.77057,-39.992,8.85E+07
7997,1.1289,4.1562,-41.122,1.24E+08
7998,3.352,4.1562,-41.122,1.71E+08
7999,1.2568,3.1241,-42.567,1.53E+08
8000,3.2336,0.90748,-41.669,1.26E+08
8001,4.2676,3.6094,-42.851,1.57E+08
8002,1.0802,0.78181,-41.87,1.20E+08
8003,-4.4381,2.6864,-40.968,1.20E+08
8004,-4.0086,0.77057,-39.992,9.33E+07
8005,-1.6084,0.77057,-39.992,8.19E+07
8006,-1.0943,4.1562,-41.122,1.17E+08
8007,-3.3397,4.1562,-41.122,8.86E+07
8008,-0.96629,3.1241,-42.567,1.53E+08
8009,-1.143,0.78181,-41.87,1.21E+08
8010,-3.3309,2.9912,-42.781,1.51E+08
8011,-3.0982,0.71651,-41.73,1.18E+08
8012,-8.8843,2.6864,-40.968,1.36E+08
8013,-8.6319,0.77057,-39.992,1.44E+08
8014,-6.2317,0.77057,-39.992,1.03E+08
8015,-7.6642,4.7061,-41.18,7.53E+07
8016,-5.5628,4.1562,-41.122,9.17E+07
8017,-6.3383,4.6524,-42.689,1.56E+08
8018,-7.6526,3.235,-43.149,1.62E+08
8019,-5.554,2.9912,-42.781,1.53E+08
8020,-7.3086,0.27224,-41.162,1.11E+08
8021,-5.3213,0.71651,-41.73,1.17E+08
8022,-6.9169,0.84154,-43.601,1.52E+08
8023,-9.0205,1.4408,-42.652,1.70E+08
8024,-13.331,2.6864,-40.968,1.74E+08
8025,-13.255,0.77057,-39.992,2.50E+08
8026,-10.855,0.77057,-39.992,1.54E+08
8027,-12.799,5.3717,-41.25,6.50E+07
8028,-9.8874,4.7061,-41.18,7.94E+07
8029,-9.8758,3.235,-43.149,1.72E+08
8030,-9.5318,0.27224,-41.162,1.20E+08
8031,-11.795,0.34521,-41.17,1.30E+08
8032,-12.322,3.4308,-43.028,1.71E+08
8033,-11.244,1.4408,-42.652,1.76E+08
8034,-15.478,0.77057,-39.992,2.58E+08
8035,-17.086,2.2892,-40.899,3.52E+08
8036,-15.022,5.3717,-41.25,6.90E+07
8037,-16.315,1.4158,-42.098,2.51E+08
8038,-16.724,2.8116,-42.137,2.13E+08
8039,-14.018,0.34521,-41.17,1.36E+08
8040,-14.545,3.4308,-43.028,1.83E+08
8041,-13.467,1.4408,-42.652,1.80E+08
8042,20,4.7082,-41.181,2.25E+08
8043,20,3,-43.389,3.62E+08
8044,18.431,2.3114,-42.302,2.66E+08
8045,20,11.965,-41.943,9.41E+07
8046,19.5,13.747,-42.131,2.00E+07
8047,19.905,13.622,-42.117,1.85E+07
8048,20,13.001,-44.44,5.25E+07
8049,19,13.668,-42.876,1.65E+08
8050,18.78,13.724,-42.349,1.69E+08
8051,18.78,13.747,-42.131,1.18E+08
8052,19.902,13.588,-42.991,3.99E+07
8053,18.531,12.642,-42.822,1.49E+08
8054,19.5,13.661,-42.95,6.11E+07
8055,20,8.5482,-41.584,1.91E+08
8056,18.25,12.462,-41.995,2.32E+08
8057,20,11.716,-44.305,1.16E+08
8058,18.78,12.462,-41.995,1.76E+08
8059,17.249,9.388,-41.672,2.21E+08
8060,20,9.544,-43.333,1.80E+08
8061,18.531,11.357,-42.687,2.30E+08
8062,20,4.7082,-43.569,2.97E+08
8063,17.249,7.2563,-41.448,2.31E+08
8064,20,7.4123,-43.109,2.00E+08
8065,18.431,4.0196,-42.481,1.97E+08
8066,18.413,6.0923,-44.098,2.13E+08
8067,19.383,14.168,-42.175,2.20E+07
8068,18.5,14.166,-42.929,1.52E+08
8069,18.28,14.221,-42.401,1.58E+08
8070,18.28,14.244,-42.183,9.88E+07
8071,19.332,14.096,-43.045,1.46E+07
8072,19,14.158,-43.002,3.32E+07
8073,19.668,13.898,-43.024,2.60E+07
8074,16.5,16.44,-42.414,2.56E+08
8075,17.07,14.231,-42.307,3.05E+08
8076,17.03,14.244,-42.183,2.43E+08
8077,15.499,11.17,-41.86,2.84E+08
8078,14.526,15.433,-42.308,2.95E+08
8079,13.505,12.181,-41.966,3.33E+08
8080,14.814,13.511,-44.139,2.47E+08
8081,15.9,15.018,-43.658,2.51E+08
8082,16.781,13.139,-42.874,2.88E+08
8083,16.5,38.403,-44.722,1.86E+06
8084,14.25,40.599,-44.953,1.03E+06
8085,17.074,40.587,-45.066,1.59E+06
8086,16.5,41.158,-45.126,1.14E+06
8087,16.046,40.006,-46.136,8.96E+05
8088,16.5,34.01,-44.26,9.07E+06
8089,14.25,38.403,-44.722,1.24E+06
8090,17.074,38.391,-44.835,1.49E+06
8091,17.561,36.16,-44.928,3.71E+06
8092,14.531,34.957,-44.36,3.64E+06
8093,15.524,35.199,-45.907,5.17E+06
8094,16.046,37.809,-45.906,1.46E+06
8095,16.5,29.618,-43.799,3.49E+07
8096,17.561,31.768,-44.466,1.65E+07
8097,17.561,33.964,-44.697,8.96E+06
8098,14.531,32.761,-44.129,1.16E+07
8099,14.898,30.699,-43.912,2.40E+07
8100,15.16,29.563,-45.588,2.66E+07
8101,15.524,33.003,-45.676,1.25E+07
8102,16.5,25.225,-43.337,8.35E+07
8103,17.561,27.375,-44.005,4.37E+07
8104,17.561,29.572,-44.236,3.22E+07
8105,14.082,26.735,-43.496,6.41E+07
8106,14.898,28.503,-43.681,4.15E+07
8107,15.16,27.366,-45.358,4.38E+07
8108,16.5,20.833,-42.875,1.68E+08
8109,17.561,22.983,-43.543,1.01E+08
8110,17.561,25.179,-43.774,7.41E+07
8111,14.082,24.539,-43.265,8.93E+07
8112,14.314,22.063,-43.005,1.49E+08
8113,15.494,22.149,-44.565,1.14E+08
8114,15.16,25.17,-45.127,7.38E+07
8115,17.561,18.591,-43.081,2.03E+08
8116,17.561,20.787,-43.312,1.55E+08
8117,17.074,16.428,-42.527,2.64E+08
8118,14.526,17.629,-42.539,2.49E+08
8119,14.314,19.867,-42.774,1.92E+08
8120,15.9,17.214,-43.889,2.11E+08
8121,15.494,19.953,-44.334,1.65E+08
8122,5.25,40.599,-44.953,2.73E+06
8123,3,38.732,-44.757,1.60E+06
8124,2.426,40.587,-45.066,1.44E+06
8125,3,41.158,-45.126,1.31E+06
8126,3.8262,39.875,-46.309,2.77E+06
8127,9.75,40.599,-44.953,2.36E+06
8128,5.25,38.732,-44.757,2.38E+06
8129,7.5,41.608,-45.501,3.33E+06
8130,5.25,41.158,-45.126,2.18E+06
8131,7.6825,37.988,-44.678,2.72E+06
8132,8.8257,39.009,-46.572,4.70E+06
8133,6.0762,39.875,-46.309,3.62E+06
8134,12,41.608,-45.501,2.26E+06
8135,9.75,41.608,-45.501,2.32E+06
8136,14.25,41.158,-45.126,7.40E+05
8137,9.9325,37.988,-44.678,1.87E+06
8138,12.281,37.154,-44.591,4.33E+06
8139,13.274,37.396,-46.138,5.04E+06
8140,11.076,39.009,-46.572,3.41E+06
8141,13.796,40.006,-46.136,1.20E+06
8142,3,27.533,-43.579,8.64E+07
8143,5.0412,24.642,-43.276,1.63E+08
8144,2.4407,25.831,-43.509,1.42E+08
8145,3.2625,25.464,-44.376,1.38E+08
8146,4.8789,26.727,-43.495,1.04E+08
8147,3,31.266,-43.972,2.13E+07
8148,1.9393,27.68,-44.037,8.21E+07
8149,1.9393,30.105,-44.292,2.43E+07
8150,2.4342,27.671,-43.705,8.88E+07
8151,3.2609,27.327,-44.572,8.18E+07
8152,4.8789,28.594,-43.691,5.44E+07
8153,4.5596,30.375,-43.878,2.71E+07
8154,3.9676,28.476,-45.879,5.00E+07
8155,4.3456,30.336,-45.275,2.62E+07
8156,3,34.999,-44.364,7.02E+06
8157,1.9393,34.395,-44.743,1.11E+07
8158,1.9393,31.971,-44.488,1.92E+07
8159,5.4325,34.255,-44.286,7.20E+06
8160,4.5596,32.242,-44.074,1.85E+07
8161,3.6705,33.897,-45.876,9.79E+06
8162,4.3456,32.203,-45.471,1.68E+07
8163,1.9393,38.686,-45.194,1.23E+06
8164,1.9393,36.262,-44.939,5.61E+06
8165,2.426,38.72,-44.87,1.16E+06
8166,5.4325,36.121,-44.482,2.95E+06
8167,3.6705,35.763,-46.072,5.83E+06
8168,3.8262,38.009,-46.113,2.92E+06
8169,-5.0412,24.642,-43.276,1.39E+08
8170,-3,27.533,-43.579,7.40E+07
8171,-2.4407,25.831,-43.509,1.29E+08
8172,-3.3835,25.439,-44.157,1.28E+08
8173,-4.8789,26.727,-43.495,9.36E+07
8174,-3.7107,26.564,-44.807,1.01E+08
8175,8.0369,21.256,-42.92,3.16E+08
8176,5.2706,24.377,-44.262,1.64E+08
8177,7.6016,21.737,-45.687,2.30E+08
8178,6.2395,23.447,-45.373,1.95E+08
8179,9.2109,24.594,-43.271,1.45E+08
8180,9.4429,22.119,-43.01,1.76E+08
8181,6.7574,25.464,-43.362,1.63E+08
8182,8.4703,23.072,-45.157,1.71E+08
8183,7.935,25.224,-45.053,1.48E+08
8184,8.9918,16.847,-42.456,4.86E+08
8185,8.5704,19.677,-45.471,3.39E+08
8186,8.9973,17.158,-45.258,3.72E+08
8187,10.675,17.867,-42.564,3.48E+08
8188,10.464,20.105,-42.799,3.15E+08
8189,10.034,18.48,-44.037,3.40E+08
8190,9.4909,21.058,-44.946,2.86E+08
8191,7.6634,12.534,-42.003,5.28E+08
8192,8.7623,14.896,-45.02,4.76E+08
8193,8.0457,12.911,-44.983,4.48E+08
8194,10.579,15.613,-42.327,4.49E+08
8195,9.5581,12.362,-41.985,4.75E+08
8196,10.867,13.692,-44.158,4.01E+08
8197,9.9371,16.227,-43.8,4.26E+08
8198,4.389,9.4133,-41.675,3.85E+08
8199,6.77,11.024,-44.784,4.58E+08
8200,4.9045,9.4348,-44.446,3.68E+08
8201,7.4513,8.7455,-41.605,3.83E+08
8202,8.369,10.442,-41.783,4.41E+08
8203,5.3499,8.1956,-41.547,3.70E+08
8204,6.2655,7.6488,-43.276,3.41E+08
8205,8.6541,9.2381,-43.717,3.82E+08
8206,6.65E-14,8.2768,-41.556,1.38E+08
8207,2.8449,8.4479,-44.342,3.26E+08
8208,0.60174,8.009,-44.296,2.40E+08
8209,1.147,7.0958,-41.431,1.96E+08
8210,3.3701,7.0958,-41.431,2.62E+08
8211,1.275,6.0637,-42.875,2.11E+08
8212,2.6297,6.8675,-44.528,2.69E+08
8213,-4.389,9.4133,-41.675,1.75E+08
8214,-1.6802,8.1464,-44.311,2.44E+08
8215,-3.9312,8.9116,-44.164,2.20E+08
8216,-1.1206,7.0958,-41.431,9.44E+07
8217,-3.366,7.0958,-41.431,1.02E+08
8218,-0.99266,6.0637,-42.875,1.44E+08
8219,-4.1415,7.592,-42.998,1.59E+08
8220,-3.3572,5.9308,-43.09,1.56E+08
8221,-7.6634,12.534,-42.003,3.49E+08
8222,-5.8442,10.156,-44.295,2.99E+08
8223,-7.338,11.787,-44.411,3.13E+08
8224,-7.4472,8.7455,-41.605,2.15E+08
8225,-9.4207,11.699,-41.915,2.63E+08
8226,-5.3458,8.1956,-41.547,1.79E+08
8227,-8.4361,9.823,-43.527,2.54E+08
8228,-6.1212,8.6918,-43.113,2.31E+08
8229,-8.9918,16.847,-42.456,3.58E+08
8230,-8.4142,13.793,-44.622,3.46E+08
8231,-8.9033,15.69,-44.539,3.50E+08
8232,-10.579,15.613,-42.327,3.25E+08
8233,-10.61,13.619,-42.117,3.16E+08
8234,-11.02,14.028,-43.946,2.86E+08
8235,-8.0369,21.256,-42.92,2.51E+08
8236,-8.9476,17.963,-44.778,3.09E+08
8237,-8.5882,19.622,-45.466,2.76E+08
8238,-10.675,17.867,-42.564,2.74E+08
8239,-10.464,20.105,-42.799,2.48E+08
8240,-9.8636,20.829,-44.537,2.30E+08
8241,-5.3757,24.323,-44.04,1.46E+08
8242,-5.9246,23.651,-46.193,1.55E+08
8243,-7.633,21.687,-45.683,1.94E+08
8244,-9.2109,24.594,-43.271,1.21E+08
8245,-9.4429,22.119,-43.01,1.46E+08
8246,-6.7574,25.464,-43.362,1.39E+08
8247,-8.843,22.843,-44.749,1.40E+08
8248,-8.0241,25.386,-44.954,1.24E+08
8249,-5.5892,25.301,-44.674,1.26E+08
8250,-3,38.732,-44.757,1.52E+06
8251,-5.25,40.599,-44.953,2.17E+06
8252,-3,41.158,-45.126,1.21E+06
8253,-2.426,40.587,-45.066,1.28E+06
8254,-3.6386,39.875,-46.289,2.23E+06
8255,-3,34.999,-44.364,4.76E+06
8256,-5.25,38.732,-44.757,1.87E+06
8257,-1.9393,38.686,-45.194,1.11E+06
8258,-2.426,38.72,-44.87,1.07E+06
8259,-1.9393,36.262,-44.939,4.08E+06
8260,-5.4325,36.121,-44.482,2.09E+06
8261,-3.9624,35.905,-45.93,3.19E+06
8262,-3.6386,38.008,-46.093,2.26E+06
8263,-3,31.266,-43.972,1.43E+07
8264,-1.9393,31.971,-44.488,1.10E+07
8265,-1.9393,34.395,-44.743,8.03E+06
8266,-5.4325,34.255,-44.286,5.27E+06
8267,-4.5596,32.242,-44.074,1.53E+07
8268,-3.9624,34.038,-45.734,5.82E+06
8269,-1.9393,27.68,-44.037,7.48E+07
8270,-1.9393,30.105,-44.292,1.39E+07
8271,-2.4342,27.671,-43.705,7.73E+07
8272,-4.8789,28.594,-43.691,4.47E+07
8273,-4.5596,30.375,-43.878,2.03E+07
8274,-3.7107,28.43,-45.003,4.58E+07
8275,-14.25,40.599,-44.953,8.30E+05
8276,-16.5,38.403,-44.722,1.80E+06
8277,-17.074,40.587,-45.066,1.19E+06
8278,-16.5,41.158,-45.126,9.63E+05
8279,-15.849,39.783,-46.374,8.44E+05
8280,-9.75,40.599,-44.953,1.83E+06
8281,-14.25,38.403,-44.722,1.18E+06
8282,-14.25,41.158,-45.126,6.21E+05
8283,-12,41.608,-45.501,1.84E+06
8284,-9.9325,37.988,-44.678,1.17E+06
8285,-12.281,37.154,-44.591,2.58E+06
8286,-10.868,39.377,-46.914,1.79E+06
8287,-13.599,39.783,-46.374,1.13E+06
8288,-7.5,41.608,-45.501,2.69E+06
8289,-9.75,41.608,-45.501,2.39E+06
8290,-5.25,41.158,-45.126,1.76E+06
8291,-7.6825,37.988,-44.678,1.41E+06
8292,-8.6176,39.377,-46.914,2.82E+06
8293,-5.8886,39.875,-46.289,2.58E+06
8294,-16.5,20.833,-42.875,1.23E+08
8295,-17.561,18.591,-43.081,1.45E+08
8296,-17.074,19.808,-42.882,1.30E+08
8297,-14.526,17.629,-42.539,1.83E+08
8298,-14.314,19.867,-42.774,1.44E+08
8299,-16.109,17.145,-43.632,1.62E+08
8300,-15.866,19.433,-43.979,1.32E+08
8301,-16.5,25.225,-43.337,5.98E+07
8302,-17.561,22.983,-43.543,7.01E+07
8303,-17.074,24.2,-43.344,6.39E+07
8304,-17.074,22.004,-43.113,9.16E+07
8305,-14.082,24.539,-43.265,6.88E+07
8306,-14.314,22.063,-43.005,1.14E+08
8307,-15.866,21.629,-44.209,9.50E+07
8308,-16.222,23.954,-44.237,6.67E+07
8309,-16.5,29.618,-43.799,2.22E+07
8310,-17.561,27.375,-44.005,2.80E+07
8311,-17.074,28.593,-43.806,2.54E+07
8312,-17.074,26.397,-43.575,3.98E+07
8313,-14.082,26.735,-43.496,4.94E+07
8314,-14.898,28.503,-43.681,2.94E+07
8315,-15.39,27.086,-45.69,3.10E+07
8316,-16.114,28.937,-44.972,2.36E+07
8317,-16.222,26.151,-44.468,4.21E+07
8318,-16.5,34.01,-44.26,4.37E+06
8319,-17.561,31.768,-44.466,8.15E+06
8320,-17.074,32.985,-44.267,5.35E+06
8321,-17.074,30.789,-44.037,1.29E+07
8322,-14.531,32.761,-44.129,6.19E+06
8323,-14.898,30.699,-43.912,1.69E+07
8324,-16.114,31.133,-45.203,1.06E+07
8325,-15.86,33.142,-45.597,6.54E+06
8326,-17.074,38.391,-44.835,1.56E+06
8327,-17.561,36.16,-44.928,2.69E+06
8328,-17.074,35.182,-44.498,2.15E+06
8329,-14.531,34.957,-44.36,2.05E+06
8330,-15.86,35.338,-45.828,1.90E+06
8331,-15.849,37.587,-46.143,1.21E+06
8332,84.331,36.952,5.0972,1.54E+07
8333,82.684,35.28,5.5,2.27E+07
8334,85.046,35.096,5.5,1.69E+07
8335,85.681,38.551,5.5,1.72E+07
8336,84.724,37.506,8.0556,2.38E+07
8337,82.544,35.127,8.1573,3.02E+07
8338,86.615,36.83,5.5,1.50E+07
8339,85.338,35.193,6.9438,1.79E+07
8340,84.19,36.322,5.3747,1.92E+07
8341,84.539,36.365,4.5694,8.30E+06
8342,83.093,34.245,4.5,1.20E+07
8343,85.601,33.897,4.5,9.76E+06
8344,85.275,34.58,5,1.14E+07
8345,82.939,34.625,4.5708,1.32E+07
8346,82.687,35.162,5.1044,1.67E+07
8347,85.117,34.932,5.1366,1.17E+07
8348,84.248,36.154,5.0113,1.30E+07
8349,64.002,13.412,4.5,5.00E+07
8350,62.129,11.935,4.5761,5.67E+07
8351,60.907,9.9787,4.4571,5.67E+07
8352,62.559,9.5035,4.5,4.11E+07
8353,60.711,10.381,4.5373,5.97E+07
8354,62.83,12.495,4.5304,5.39E+07
8355,65.755,11.168,4.5,3.01E+07
8356,63.865,11.529,6.2926,4.91E+07
8357,61.919,10.801,5.4353,5.58E+07
8358,79.911,30.773,4.5,2.19E+07
8359,79.516,31.389,4.7929,2.51E+07
8360,81.132,33.152,4.7929,2.14E+07
8361,84.103,32.207,4.5,1.18E+07
8362,83.726,32.863,5,1.48E+07
8363,81.697,29.075,4.5,1.36E+07
8364,83.568,29.989,4.5,1.27E+07
8365,81.163,30.992,5.9676,2.07E+07
8366,83.189,31.45,5.8165,1.54E+07
8367,76.729,27.301,4.5,2.87E+07
8368,77.925,29.653,4.7929,2.91E+07
8369,76.615,27.964,4.6534,3.13E+07
8370,80.106,27.339,4.5,1.67E+07
8371,77.985,27.93,5.8491,2.81E+07
8372,79.572,29.256,5.9676,2.47E+07
8373,73.547,23.829,4.5,3.39E+07
8374,73.73,24.648,4.592,3.60E+07
8375,75.024,26.228,4.6534,3.40E+07
8376,76.462,23.493,4.5,2.06E+07
8377,78.515,25.602,4.5,1.91E+07
8378,76.23,24.573,6.404,2.88E+07
8379,76.394,26.194,5.8491,3.08E+07
8380,75.049,22.938,6.5739,2.98E+07
8381,70.366,20.357,4.5,3.89E+07
8382,72.139,22.912,4.592,3.85E+07
8383,73.547,19.757,4.5,2.16E+07
8384,74.871,21.757,4.5,2.28E+07
8385,71.844,19.879,6.4168,3.52E+07
8386,73.458,21.202,6.5739,3.22E+07
8387,67.184,16.884,4.5,4.39E+07
8388,70.548,21.176,4.592,4.10E+07
8389,67.619,17.94,4.5802,4.58E+07
8390,71.956,18.021,4.5,2.38E+07
8391,70.548,16.485,4.5,2.42E+07
8392,68.466,16.452,6.3293,4.08E+07
8393,70.253,18.143,6.4168,3.77E+07
8394,64.421,14.231,4.5304,5.03E+07
8395,66.028,16.204,4.5802,4.83E+07
8396,67.346,12.904,4.5,2.65E+07
8397,68.957,14.749,4.5,2.65E+07
8398,66.875,14.716,6.3293,4.32E+07
8399,65.456,13.265,6.2926,4.55E+07
8400,61.73,12.3,5.1173,6.21E+07
8401,63.29,14.115,5.5,6.08E+07
8402,60.029,10.557,5.4506,6.78E+07
8403,60.317,10.742,5.0571,6.50E+07
8404,62.378,12.91,4.9872,5.93E+07
8405,61.267,11.907,7.0969,7.14E+07
8406,63.497,11.867,6.7926,5.42E+07
8407,61.551,11.139,5.9353,6.10E+07
8408,60.475,10.594,4.7454,6.28E+07
8409,62.57,12.733,4.6977,5.71E+07
8410,61.659,11.04,5.5817,5.88E+07
8411,66.523,17.643,5.5,5.43E+07
8412,63.994,14.673,4.9872,5.58E+07
8413,65.659,16.593,5.1271,5.38E+07
8414,64.401,15.327,8.6321,7.00E+07
8415,65.729,16.777,7.9669,6.43E+07
8416,62.883,13.671,7.0969,6.79E+07
8417,66.532,15.081,6.8293,4.85E+07
8418,65.113,13.631,6.7926,5.07E+07
8419,69.755,21.17,5.5,4.84E+07
8420,70.216,21.582,5.1541,4.60E+07
8421,67.275,18.357,5.1271,5.08E+07
8422,68.609,19.92,8.3333,5.96E+07
8423,67.345,18.541,7.9669,6.13E+07
8424,68.148,16.845,6.8293,4.56E+07
8425,69.935,18.536,6.9168,4.24E+07
8426,72.987,24.697,5.5,4.23E+07
8427,71.832,23.346,5.1541,4.30E+07
8428,70.225,21.684,8.3333,5.66E+07
8429,71.855,23.462,8.3333,5.28E+07
8430,71.551,20.299,6.9168,3.94E+07
8431,74.346,23.257,6.904,3.54E+07
8432,73.165,21.623,7.0739,3.63E+07
8433,76.219,28.225,5.5,3.58E+07
8434,73.448,25.109,5.1541,3.99E+07
8435,74.799,26.638,5.2776,3.80E+07
8436,75.101,27.004,8.3333,4.57E+07
8437,73.471,25.226,8.3333,4.97E+07
8438,75.962,25.021,6.904,3.23E+07
8439,76.127,26.642,6.3491,3.46E+07
8440,79.452,31.752,5.5,2.87E+07
8441,76.415,28.401,5.2776,3.46E+07
8442,76.717,28.768,8.3333,4.24E+07
8443,79.312,31.6,8.1573,3.64E+07
8444,78.04,30.212,9.5734,4.27E+07
8445,77.743,28.405,6.3491,3.12E+07
8446,79.33,29.732,6.4676,2.77E+07
8447,83.509,33.366,5.5,1.68E+07
8448,80.928,33.364,8.1573,3.27E+07
8449,80.946,31.496,6.4676,2.40E+07
8450,83.722,33.429,6.9438,1.94E+07
8451,82.574,34.559,5.3747,1.98E+07
8452,82.973,31.953,6.3165,1.79E+07
8453,40,-12.791,-6.4311,3.78E+08
8454,41.183,-12.29,-5.3129,2.02E+08
8455,40,-15.22,-6.7322,3.43E+08
8456,41.016,-14.078,-5.5247,2.83E+08
8457,40,-14.179,-9.2761,3.12E+08
8458,40,-12.182,-7.8558,3.23E+08
8459,38.271,-13.441,-7.3659,2.61E+08
8460,38.807,-13.832,-5.8925,2.49E+08
8461,39.839,-13.064,-6.094,3.28E+08
8462,40,-11.597,-5.1463,3.00E+08
8463,41.354,-9.8241,-2.9364,1.09E+08
8464,41.208,-11.099,-4.1675,1.31E+08
8465,40,-11.302,-2.1596,1.81E+08
8466,40,-9.5847,-2.1596,1.28E+08
8467,39.161,-12.218,-2.1596,1.62E+08
8468,39.131,-10.028,-2.1596,1.44E+08
8469,41.043,-12.915,-4.3528,2.08E+08
8470,41.223,-10.212,-3.7742,1.03E+08
8471,40,-8.8636,-5.8759,2.03E+08
8472,40,-8.6695,-3.9297,1.71E+08
8473,37.738,-11.315,-3.3871,1.43E+08
8474,38.807,-12.669,-4.6959,1.71E+08
8475,38.809,-10.557,-4.9236,1.81E+08
8476,39.839,-11.902,-4.8975,2.49E+08
8477,41.242,-11.471,-5.0035,1.98E+08
8478,41.246,-10.705,-4.4955,1.74E+08
8479,40,-9.2611,-6.6535,2.69E+08
8480,40,-11.417,-7.4369,3.03E+08
8481,38.271,-12.676,-6.947,2.52E+08
8482,38.809,-10.955,-5.7013,2.46E+08
8483,39.839,-12.299,-5.6751,3.19E+08
8484,44.206,-6.7118,-0.5116,2.32E+07
8485,43.389,-7.6028,1.4157,1.91E+07
8486,41.899,-9.2294,1.4157,2.44E+07
8487,41.379,-9.7966,-0.83427,6.98E+07
8488,43.952,-7.1778,-1.3246,1.97E+07
8489,42.575,-8.6876,-2.4831,3.87E+07
8490,43.55,-8.9932,-0.42905,1.10E+07
8491,47.206,-3.4372,1.4828,1.58E+07
8492,46.346,-4.3764,2.5188,2.49E+07
8493,44.855,-6.003,2.5188,1.69E+07
8494,46.852,-3.9984,0.7151,1.17E+07
8495,45.404,-5.5856,-0.24107,1.05E+07
8496,46.766,-5.9311,1.7902,9.28E+06
8497,45.016,-7.3934,0.67405,9.66E+06
8498,50.316,-4.41E-02,3.0721,3.19E+07
8499,49.366,-1.0807,3.4136,4.12E+07
8500,47.875,-2.7072,3.4136,2.33E+07
8501,49.866,-0.69497,2.3617,1.84E+07
8502,48.367,-2.3382,1.5972,1.46E+07
8503,49.499,-2.3781,3.318,1.64E+07
8504,50.441,-0.73564,4.1217,3.57E+07
8505,52.682,1.632,3.3346,3.17E+07
8506,52.432,2.266,4.1086,6.05E+07
8507,50.942,0.63948,4.1086,5.79E+07
8508,52.461,2.2968,3.9193,5.36E+07
8509,52.639,2.3411,3.5072,4.19E+07
8510,51.427,1.0156,3.0495,3.16E+07
8511,52.018,0.98454,4.8167,5.28E+07
8512,56.484,6.6875,5.1216,7.67E+07
8513,54.901,5.2932,5.079,8.60E+07
8514,54.018,3.9968,4.5771,7.69E+07
8515,56.461,6.6624,5.0009,7.55E+07
8516,54.069,4.0522,4.43,6.99E+07
8517,55.984,6.007,4.4716,7.04E+07
8518,55.093,5.0574,4.3033,6.87E+07
8519,53.768,4.2877,4.858,8.98E+07
8520,55.186,3.6675,5.5924,6.72E+07
8521,56.787,4.9216,5.187,6.14E+07
8522,56.743,5.5227,4.9621,6.49E+07
8523,54.87,4.4541,4.7005,6.98E+07
8524,58.896,8.5242,4.8154,6.52E+07
8525,58.088,8.4375,5.4012,7.38E+07
8526,58.088,8.4375,7.0989,8.42E+07
8527,58.096,8.4471,5.2658,7.26E+07
8528,58.664,8.9586,4.9549,6.85E+07
8529,58.285,8.5734,4.9634,7.02E+07
8530,59.624,10.114,6.9981,7.49E+07
8531,59.133,8.0376,6.0762,6.47E+07
8532,59.907,9.3457,5.8365,6.45E+07
8533,57.906,6.5937,4.1137,5.57E+07
8534,61.048,7.812,4.4561,4.49E+07
8535,61.173,5.6471,4.4561,2.97E+07
8536,58.596,8.197,4.9142,6.77E+07
8537,58.605,8.2067,4.7772,6.66E+07
8538,59.199,8.7004,4.4051,6.27E+07
8539,58.802,8.3389,4.3831,6.45E+07
8540,58.166,7.5073,4.2506,6.20E+07
8541,58.928,6.4627,4.9968,5.19E+07
8542,59.642,7.7971,5.5892,5.94E+07
8543,60.416,9.1052,5.3495,5.87E+07
8544,58.884,7.0638,4.7719,5.58E+07
8545,54.933,3.2377,3.4257,3.70E+07
8546,59.657,3.9483,4.3255,2.97E+07
8547,57.644,2.5473,4.0259,2.90E+07
8548,56.664,5.8284,3.9694,5.73E+07
8549,55.776,4.8977,3.7819,5.58E+07
8550,54.947,3.9035,3.5369,4.54E+07
8551,55.833,3.5221,5.1444,5.39E+07
8552,57.433,4.7761,4.739,4.83E+07
8553,57.389,5.3773,4.5141,5.19E+07
8554,52.004,-6.85E-02,2.3918,1.33E+07
8555,53.212,2.2111,3.726,4.89E+07
8556,53.241,2.2429,3.5306,4.03E+07
8557,54.603,-0.72081,3.2733,2.37E+07
8558,56.134,0.88468,3.6968,2.40E+07
8559,53.468,2.2481,3.0688,3.01E+07
8560,52.278,0.92107,2.6268,1.87E+07
8561,51.855,-0.71285,3.6304,2.48E+07
8562,54.356,1.8553,4.714,4.02E+07
8563,52.797,0.92958,4.4341,4.39E+07
8564,49.139,-3.3033,1.0112,1.45E+07
8565,53.112,-2.3642,2.7697,3.09E+07
8566,51.888,-4.2487,2.2794,3.79E+07
8567,50.827,-0.7049,2.0013,9.00E+06
8568,49.355,-2.3547,1.2679,8.53E+06
8569,49.202,-4.2333,2.3937,1.77E+07
8570,50.405,-2.3495,3.0268,2.13E+07
8571,46.359,-6.4426,-0.71935,1.82E+07
8572,48.685,-8.0185,0.69262,4.29E+07
8573,50.416,-5.8416,1.6113,4.01E+07
8574,47.944,-3.9369,0.46609,9.75E+06
8575,46.519,-5.5351,-0.44974,9.05E+06
8576,47.789,-5.8285,1.6166,1.89E+07
8577,43.694,-9.4529,-2.8196,8.13E+07
8578,47.255,-9.5589,-0.17707,4.49E+07
8579,45.175,-10.595,-1.6366,4.58E+07
8580,45.163,-7.0583,-1.4329,1.21E+07
8581,43.803,-8.5853,-2.5404,4.07E+07
8582,46.426,-7.3684,0.66049,2.11E+07
8583,44.676,-8.8307,-0.45562,1.90E+07
8584,41.208,-11.099,-2.0079,8.46E+07
8585,43.833,-12.056,-2.7381,1.13E+08
8586,42.255,-12.712,-4.2045,1.38E+08
8587,42.508,-10.043,-3.6883,8.85E+07
8588,43.379,-10.296,-1.6027,8.47E+07
8589,41.047,-11.699,-4.7459,1.49E+08
8590,63.398,-16.608,4.5,1.35E+08
8591,61.513,-20.026,4.4417,1.32E+08
8592,64.673,-17.837,4.5,1.31E+08
8593,63.61,-19.099,4.5761,1.31E+08
8594,60.884,-17.869,4.3938,1.35E+08
8595,64.544,-17.812,5.1784,1.28E+08
8596,62.837,-19.173,5.0648,1.28E+08
8597,62.818,5.1564,4.5,2.52E+07
8598,65.337,6.6416,4.5,2.16E+07
8599,65.896,8.9952,4.5,2.39E+07
8600,64.642,7.6557,6.6871,2.90E+07
8601,64.007,9.3564,6.2926,3.75E+07
8602,64.594,5.2876,6.685,2.12E+07
8603,62.294,6.7837,6.4102,3.78E+07
8604,61.287,7.3204,5.675,4.48E+07
8605,62.061,8.6285,5.4353,4.33E+07
8606,63.029,0.80661,4.5,4.28E+07
8607,60.893,1.575,4.4257,3.68E+07
8608,65.455,4.4673,4.5,3.11E+07
8609,65.336,1.898,4.5,4.30E+07
8610,60.69,3.8116,5.0826,2.95E+07
8611,64.712,3.1133,6.685,2.84E+07
8612,61.949,1.8803,6.0658,2.93E+07
8613,64.264,1.1485,6.0931,3.69E+07
8614,62.412,4.6094,6.4102,2.70E+07
8615,61.404,5.1461,5.675,3.02E+07
8616,63.193,-3.5452,4.5,7.40E+07
8617,60.984,-0.58906,4.4257,4.79E+07
8618,61.503,-2.4584,4.454,6.34E+07
8619,65.347,-2.492,4.5,7.26E+07
8620,65.43,-0.27745,4.5,5.91E+07
8621,62.043,-0.29512,6.0658,3.89E+07
8622,63,-2.3242,6.2567,5.52E+07
8623,64.358,-1.0269,6.0931,5.26E+07
8624,63.309,-7.8985,4.5,1.05E+08
8625,60.955,-6.7388,4.4088,9.35E+07
8626,61.572,-4.6257,4.454,7.87E+07
8627,65.417,-4.6684,4.5,8.86E+07
8628,65.304,-7.0483,4.5,1.02E+08
8629,65.646,-5.7695,6.4093,8.75E+07
8630,63.784,-7.1515,6.2275,8.99E+07
8631,63.07,-4.5005,6.2567,7.06E+07
8632,61.393,-5.8163,5.8977,7.57E+07
8633,63.377,-12.253,4.5,1.27E+08
8634,65.765,-12.334,4.5,1.29E+08
8635,61.001,-8.903,4.4088,1.08E+08
8636,61.542,-11.313,4.4439,1.24E+08
8637,65.35,-9.2253,4.5,1.17E+08
8638,62.639,-11.213,6.3464,1.09E+08
8639,64.594,-11.861,5.7798,1.19E+08
8640,63.83,-9.3285,6.2275,1.04E+08
8641,61.348,-10.148,5.975,1.02E+08
8642,61.439,-7.9933,5.8977,8.93E+07
8643,65.787,-14.511,4.5,1.36E+08
8644,64.648,-15.625,4.5,1.33E+08
8645,60.886,-15.705,4.3938,1.36E+08
8646,61.563,-13.48,4.4439,1.32E+08
8647,64.546,-15.635,5.1784,1.29E+08
8648,62.838,-16.996,5.0648,1.29E+08
8649,62.661,-13.391,6.3464,1.17E+08
8650,64.616,-14.038,5.7798,1.27E+08
8651,49.282,-23.937,1.0079,1.21E+08
8652,45.483,-24.012,-1.4058,1.25E+08
8653,47.281,-24.383,-3.44E-02,1.25E+08
8654,47.066,-24.505,2.384,1.02E+08
8655,48.55,-22.457,0.59285,1.17E+08
8656,46.701,-22.358,-0.54772,1.10E+08
8657,49.266,-24.308,1.0868,1.20E+08
8658,46.444,-22.834,1.7671,9.17E+07
8659,53.366,-23.323,2.7892,1.23E+08
8660,49.051,-24.355,3.4306,1.02E+08
8661,50.544,-22.307,1.6254,1.17E+08
8662,51.316,-24.074,2.0647,1.20E+08
8663,53.41,-23.68,2.8819,1.21E+08
8664,51.208,-22.573,3.6936,1.05E+08
8665,52.034,-23.49,2.7203,1.17E+08
8666,57.518,-22.027,3.9279,1.30E+08
8667,54.163,-19.735,3.0455,1.23E+08
8668,56.924,-19.875,3.7941,1.31E+08
8669,52.566,-21.834,2.4887,1.21E+08
8670,55.526,-23.114,3.5365,1.26E+08
8671,53.281,-22.1,4.4253,1.11E+08
8672,55.959,-22.293,4.268,1.22E+08
8673,54.107,-23.017,3.452,1.21E+08
8674,61.695,-20.351,4.5282,1.29E+08
8675,59.698,-21.562,4.7517,1.27E+08
8676,58.975,-19.034,4.1716,1.36E+08
8677,57.628,-22.369,4.0231,1.27E+08
8678,59.695,-21.444,4.3489,1.32E+08
8679,58.095,-20.134,5.7796,1.17E+08
8680,60.915,-20.336,4.9429,1.28E+08
8681,58.009,-21.465,4.6758,1.24E+08
8682,42.277,-24.178,-4.1159,1.26E+08
8683,43.401,-24.507,-0.90617,1.05E+08
8684,43.647,-24.428,-2.7248,1.36E+08
8685,45.427,-24.383,-1.3254,1.27E+08
8686,43.056,-24.43,-3.2634,1.34E+08
8687,44.877,-22.366,-1.8736,1.14E+08
8688,42.904,-22.24,-3.5516,1.41E+08
8689,44.346,-24.13,-1.4366,1.19E+08
8690,42.101,-23.354,-1.5707,8.33E+07
8691,42.324,-23.913,-3.2042,1.10E+08
8692,43.603,-24.248,-2.5556,1.30E+08
8693,36.033,-28.819,-12.751,1.37E+08
8694,35.41,-27.416,-14.282,1.65E+08
8695,35.363,-27.363,-14.402,1.60E+08
8696,36.165,-29.832,-12.011,1.50E+08
8697,36.04,-29.004,-12.677,1.39E+08
8698,34.776,-32.496,-15.34,1.25E+08
8699,35.725,-31.973,-13.038,1.41E+08
8700,34.563,-29.614,-16.067,1.32E+08
8701,31.986,-29.224,-14.275,1.12E+08
8702,33.829,-28.146,-13.702,1.22E+08
8703,33.486,-30.953,-15.19,1.11E+08
8704,34.211,-30.182,-12.546,1.13E+08
8705,37.694,-26.885,-9.785,1.11E+08
8706,36.107,-26.359,-12.754,1.61E+08
8707,37.093,-26.367,-10.841,1.61E+08
8708,37.699,-27.168,-9.6807,1.14E+08
8709,36.828,-28.016,-11.185,1.36E+08
8710,34.571,-27.145,-12.195,1.17E+08
8711,35.673,-27.048,-10.102,1.25E+08
8712,35.326,-26.308,-10.444,1.20E+08
8713,39.222,-25.461,-7.5981,1.03E+08
8714,38,-25.455,-9.3685,1.38E+08
8715,38.665,-26.386,-8.1905,9.22E+07
8716,39.243,-25.582,-7.5555,9.06E+07
8717,36.6,-26.14,-8.6398,9.93E+07
8718,37.859,-25.097,-7.7137,1.15E+08
8719,40.364,-24.763,-6.1762,1.17E+08
8720,40.477,-23.966,-6.0627,1.67E+08
8721,40.868,-25.139,-5.2781,1.00E+08
8722,40.388,-24.881,-6.1356,1.09E+08
8723,41.705,-24.666,-4.595,1.30E+08
8724,41.537,-22.539,-4.9082,1.41E+08
8725,39.528,-24.581,-5.1163,1.08E+08
8726,40.947,-24.211,-4.5504,1.14E+08
8727,36.348,-24.897,-12.326,1.89E+08
8728,35.424,-24.893,-14.41,1.84E+08
8729,35.791,-23.255,-14.42,1.93E+08
8730,35.509,-24.044,-14.445,1.89E+08
8731,33.898,-25.677,-13.712,1.46E+08
8732,34.352,-24.124,-13.672,1.58E+08
8733,34.654,-24.84,-11.962,1.49E+08
8734,38.509,-24.906,-8.6072,1.52E+08
8735,39.949,-24.127,-6.6976,1.73E+08
8736,39.741,-23.204,-7.4694,1.97E+08
8737,39.82,-25.048,-6.834,1.05E+08
8738,38.942,-24.731,-5.808,1.22E+08
8739,38.416,-24.546,-6.9844,1.26E+08
8740,38.296,-23.344,-9.4479,2.36E+08
8741,37.876,-22.388,-11.018,2.30E+08
8742,36.636,-23.25,-12.466,1.92E+08
8743,35.297,-24.128,-11.74,1.57E+08
8744,37.312,-22.177,-10.392,1.83E+08
8745,35.946,-25.584,-9.6876,1.54E+08
8746,37.205,-24.541,-8.7616,1.68E+08
8747,35.598,-24.844,-10.03,1.48E+08
8748,40,-21.655,-6.6877,2.70E+08
8749,39.925,-22.472,-7.6557,2.57E+08
8750,40,-21.912,-7.662,2.68E+08
8751,41.035,-21.888,-5.4647,1.83E+08
8752,39.05,-23.931,-5.6935,1.81E+08
8753,37.954,-22.521,-6.4796,1.69E+08
8754,39.306,-21.666,-5.3905,1.89E+08
8755,40.469,-23.561,-5.1276,1.66E+08
8756,38.524,-23.745,-6.8699,1.85E+08
8757,38.643,-20.858,-7.0619,1.89E+08
8758,40,-18.407,-6.7273,3.04E+08
8759,40,-20.432,-7.8726,3.10E+08
8760,41.032,-20.233,-5.4911,2.21E+08
8761,37.954,-20.866,-6.5086,2.03E+08
8762,39.306,-20.01,-5.4195,2.29E+08
8763,38.643,-19.203,-7.0909,2.29E+08
8764,40,-18.201,-9.5747,2.79E+08
8765,40,-18.838,-7.8883,3.00E+08
8766,41.014,-15.671,-5.5339,2.32E+08
8767,41.032,-18.64,-5.5064,2.10E+08
8768,40,-15.772,-9.287,2.69E+08
8769,38.271,-15.034,-7.3768,2.16E+08
8770,38.631,-18.134,-8.5453,2.37E+08
8771,38.181,-16.764,-5.1394,1.89E+08
8772,40.262,-17.315,-3.8559,2.02E+08
8773,39.306,-18.417,-5.4352,2.18E+08
8774,38.807,-15.425,-5.9034,2.06E+08
8775,38.643,-17.61,-7.1066,2.18E+08
8776,98.689,21.799,4.5,3.15E+07
8777,99.206,19.266,4.5,5.18E+07
8778,101.23,20.934,4.5697,4.43E+07
8779,99.392,21.529,5,5.05E+07
8780,87.984,30.022,4.5,1.46E+07
8781,86.318,32.555,5,1.55E+07
8782,87.43,30.791,5,1.95E+07
8783,86.169,29.686,4.5,1.74E+07
8784,85.791,31.148,5.8165,1.43E+07
8785,91.03,26.642,4.5,1.90E+07
8786,88.808,28.979,5,2.09E+07
8787,90.211,27.435,5,2.64E+07
8788,87.532,27.865,4.5,1.86E+07
8789,89.274,25.985,4.5,2.43E+07
8790,88.576,27.274,6.1,1.96E+07
8791,94.638,23.87,4.5,2.59E+07
8792,91.883,25.889,5,2.99E+07
8793,93.532,24.612,5,3.61E+07
8794,92.603,22.347,4.5,3.54E+07
8795,90.944,24.441,4.5,2.78E+07
8796,91.903,23.936,5.9261,3.05E+07
8797,97.094,20.113,4.5,4.59E+07
8798,95.447,23.38,5,3.93E+07
8799,97.292,22.409,5,4.71E+07
8800,94.525,21.132,4.5,3.87E+07
8801,96.199,21.293,6.0925,4.23E+07
8802,69.814,-12.81,4.5,1.44E+08
8803,67.072,-15.738,4.5,1.34E+08
8804,68.463,-14.851,4.5761,1.39E+08
8805,68.962,-14.1,4.5301,1.43E+08
8806,67.766,-11.484,4.5,1.27E+08
8807,66.939,-15.716,5.1784,1.30E+08
8808,67.01,-14.119,5.7798,1.29E+08
8809,68.736,-13.255,5.5641,1.34E+08
8810,73.079,-9.2461,4.5,1.49E+08
8811,70.595,-12.318,4.5301,1.48E+08
8812,72.448,-10.514,4.5796,1.53E+08
8813,69.399,-9.7015,4.5,1.32E+08
8814,71.036,-8.6207,4.5,1.32E+08
8815,70.369,-11.473,5.5641,1.39E+08
8816,71.17,-9.7905,5.7666,1.35E+08
8817,76.345,-5.6822,4.5,1.45E+08
8818,74.081,-8.7319,4.5796,1.53E+08
8819,75.719,-6.9548,4.5827,1.51E+08
8820,73.71,-4.8872,4.5,1.25E+08
8821,72.669,-6.8387,4.5,1.32E+08
8822,73.906,-6.6138,6.1417,1.31E+08
8823,72.803,-8.0085,5.7666,1.35E+08
8824,75.613,-5.7678,5.4993,1.38E+08
8825,79.611,-2.1182,4.5,1.37E+08
8826,77.352,-5.1728,4.5827,1.48E+08
8827,79.07,-3.2899,4.5803,1.42E+08
8828,77.128,-1.1634,4.5,1.18E+08
8829,75.343,-3.1052,4.5,1.22E+08
8830,77.289,-2.782,6.3671,1.23E+08
8831,79.133,-1.1905,5.9395,1.23E+08
8832,77.246,-3.9859,5.4993,1.34E+08
8833,82.877,1.4458,4.5,1.27E+08
8834,80.703,-1.5079,4.5803,1.38E+08
8835,82.357,0.29597,4.5807,1.32E+08
8836,78.761,0.61862,4.5,1.13E+08
8837,80.298,2.7016,4.5,1.07E+08
8838,80.766,0.59148,5.9395,1.18E+08
8839,86.143,5.0098,4.5,1.15E+08
8840,83.99,2.078,4.5807,1.26E+08
8841,85.633,3.8687,4.5815,1.20E+08
8842,83.54,6.3494,4.5,9.77E+07
8843,81.93,4.4836,4.5,1.02E+08
8844,82.399,2.3735,5.9395,1.12E+08
8845,84.556,4.2772,5.6303,1.10E+08
8846,89.408,8.5737,4.5,1.03E+08
8847,87.266,5.6507,4.5815,1.14E+08
8848,88.908,7.4388,4.5827,1.08E+08
8849,85.173,8.1314,4.5,9.19E+07
8850,86.702,9.9022,4.5,8.80E+07
8851,87.734,7.6015,5.5255,1.01E+08
8852,86.189,6.0592,5.6303,1.05E+08
8853,92.674,12.138,4.5,9.13E+07
8854,90.541,9.2208,4.5827,1.02E+08
8855,92.183,11.008,4.584,9.63E+07
8856,90.02,13.207,4.5,7.97E+07
8857,88.335,11.684,4.5,8.22E+07
8858,90.165,11.48,6.2249,8.43E+07
8859,89.367,9.3835,5.5255,9.52E+07
8860,91.766,12.169,5.6707,8.65E+07
8861,95.94,15.702,4.5,7.70E+07
8862,93.816,12.79,4.584,9.01E+07
8863,95.513,14.618,4.5913,8.31E+07
8864,91.653,14.989,4.5,7.34E+07
8865,93.371,16.72,4.5,6.77E+07
8866,95.044,16.882,6.0925,7.18E+07
8867,93.399,13.951,5.6707,8.02E+07
8868,99.596,19.143,4.571,5.88E+07
8869,97.776,19.79,5,6.52E+07
8870,97.146,16.4,4.5913,7.50E+07
8871,95.004,18.502,4.5,5.97E+07
8872,96.677,18.664,6.0925,6.37E+07
8873,64.868,-18.117,4.5598,1.28E+08
8874,67.324,-15.968,4.5598,1.34E+08
8875,65.799,-16.83,5.1784,1.26E+08
8876,39.356,-0.61732,4.5761,1.24E+08
8877,41.419,-0.32857,5,1.29E+08
8878,41.739,-0.89053,4.5,1.14E+08
8879,38.564,-1,4.5,1.12E+08
8880,38.633,-3.0695,4.5,9.61E+07
8881,40.522,-2.4786,4.5,9.23E+07
8882,38.683,-1.2237,5.222,9.13E+07
8883,39.497,-1.7349,5.641,9.57E+07
8884,39.356,-7.61E-02,5.1173,1.26E+08
8885,41.426,8.59E-02,5.5,1.30E+08
8886,38.478,2.84E-11,5.5,1.05E+08
8887,38.545,-0.12961,5.0076,1.22E+08
8888,39.356,2.91E-11,7.2655,1.09E+08
8889,38.683,-0.72366,5.722,9.43E+07
8890,39.497,-1.2349,6.141,9.77E+07
8891,41.429,1.37E-02,5.1246,1.34E+08
8892,41.728,-0.41743,4.6269,1.19E+08
8893,38.564,-0.61732,4.5761,1.18E+08
8894,38.545,-0.38429,4.712,1.22E+08
8895,42.763,4.04E-02,4.8403,1.26E+08
8896,38.683,-0.8701,5.3684,9.67E+07
8897,39.497,-1.3814,5.7875,1.01E+08
8898,56.326,6.6419,5.5,8.43E+07
8899,57.788,8.1102,7.1977,8.69E+07
8900,57.797,8.1199,5.363,7.52E+07
8901,58.834,7.7104,6.175,6.74E+07
8902,58.076,6.977,5.3577,6.30E+07
8903,46.012,0.90242,5.5,1.32E+08
8904,43.792,-0.11009,5,1.25E+08
8905,41.426,8.59E-02,7.2655,1.19E+08
8906,44.792,0.53952,5.182,1.33E+08
8907,44.406,0.51549,8.0971,1.50E+08
8908,42.585,-1.8071,5,1.02E+08
8909,43.424,-1.5719,7.0175,1.07E+08
8910,45.74,-0.6604,6.5108,1.09E+08
8911,41.56,-1.0635,6.141,1.06E+08
8912,49.898,2.3315,5.5,1.21E+08
8913,49.226,0.65641,5,1.04E+08
8914,50.435,2.5549,5.2551,1.16E+08
8915,47.286,1.2384,5.1879,1.28E+08
8916,46.914,1.1698,8.0971,1.44E+08
8917,48.915,1.8995,7.3968,1.38E+08
8918,48.235,2.86E-02,6.5108,1.04E+08
8919,50.302,1.0015,5.7081,9.81E+07
8920,48.886,1.8398,5.2062,1.25E+08
8921,53.063,4.0928,5.5,1.03E+08
8922,51.804,3.2776,5.2328,1.08E+08
8923,50.33,2.5374,7.3968,1.30E+08
8924,52.194,3.548,7.9719,1.26E+08
8925,53.268,2.5815,5.988,8.62E+07
8926,51.709,1.6558,5.7081,8.90E+07
8927,56.326,6.6419,7.1977,9.49E+07
8928,53.56,4.3831,5.2328,9.74E+07
8929,53.926,4.6847,7.9719,1.16E+08
8930,54.999,3.7166,5.988,7.47E+07
8931,56.599,4.9706,5.5826,6.91E+07
8932,56.555,5.5717,5.3577,7.26E+07
8933,50.875,1.691,4.5,9.10E+07
8934,51.473,1.2185,4.5,7.85E+07
8935,52.992,2.8769,4.3046,6.92E+07
8936,52.624,3.2151,4.6297,9.01E+07
8937,54.107,2.4892,5.488,6.88E+07
8938,52.548,1.5636,5.2081,7.22E+07
8939,53.79,3.2759,4.5961,6.94E+07
8940,46.418,6.05E-03,4.5,1.09E+08
8941,49.336,0.16256,4.5,9.45E+07
8942,47.845,-1.464,4.5,7.57E+07
8943,50.571,2.0905,4.6297,1.03E+08
8944,47.385,0.73115,4.6258,1.18E+08
8945,48.99,1.3593,4.6183,1.13E+08
8946,45.552,-2.1121,4.5,7.74E+07
8947,45.115,8.96E-02,4.6431,1.18E+08
8948,42.895,-2.2601,4.5,8.73E+07
8949,43.734,-2.0249,6.5175,9.19E+07
8950,46.051,-1.1134,6.0108,9.45E+07
8951,37.758,-0.73242,4.5365,1.30E+08
8952,37.847,-3.0693,4.5,9.97E+07
8953,37.847,-0.50002,3.6292,9.24E+07
8954,38.034,-2.6882,2.257,1.23E+08
8955,37.891,-1.2237,5.222,9.30E+07
8956,36.666,-1.098,4.3092,1.14E+08
8957,37.674,-0.12911,5.0085,1.13E+08
8958,38.478,2.84E-11,7.2655,8.87E+07
8959,34.694,4.02E-11,4.5849,8.25E+07
8960,37.65,0,5.1468,9.50E+07
8961,36.264,2.68E-11,6.9842,5.75E+07
8962,37.805,-0.72366,5.722,7.77E+07
8963,36.579,-0.598,4.8092,9.23E+07
8964,37.829,-0.24195,3.7012,9.40E+07
8965,37.716,-0.24242,4.718,1.21E+08
8966,37.872,-0.96608,5.2934,9.82E+07
8967,36.647,-0.84043,4.3807,1.19E+08
8968,39.549,-11.794,4.5,6.35E+07
8969,38.038,-11.35,4.5,9.35E+07
8970,39.029,-12.361,2.25,1.02E+08
8971,38.255,-13.206,2.2584,1.08E+08
8972,37.492,-15.069,3.048,1.06E+08
8973,36.863,-15.019,5.5584,9.89E+07
8974,36.68,-11.611,5.5956,8.93E+07
8975,36.619,-12.548,3.3614,1.05E+08
8976,39.129,-15.59,4.5796,8.95E+07
8977,38.54,-13.508,6.4383,8.08E+07
8978,40.354,-14.537,4.8427,7.29E+07
8979,39.922,-13.895,2.9138,8.09E+07
8980,36.129,-14.345,3.9332,1.04E+08
8981,48.492,-2.0346,4.5,6.61E+07
8982,51.168,1.535,4.7425,8.86E+07
8983,48.048,0.1536,4.6949,1.04E+08
8984,48.99,-1.0359,6.0108,8.13E+07
8985,50.115,-1.7054,4.4044,5.88E+07
8986,51.058,-6.30E-02,5.2081,7.55E+07
8987,49.656,0.73917,4.7183,9.88E+07
8988,45.511,-5.2877,4.5,4.12E+07
8989,47.561,-3.3658,2.7246,2.12E+07
8990,46.558,-1.4729,4.6949,8.54E+07
8991,44.345,-3.8091,4.5,5.60E+07
8992,45.183,-3.5739,6.5175,6.17E+07
8993,47.422,-5.2157,3.7713,3.45E+07
8994,47.5,-2.6624,6.0108,6.31E+07
8995,48.625,-3.332,4.4044,4.31E+07
8996,47.076,-5.0591,6.2535,4.34E+07
8997,42.53,-8.5407,4.5,3.44E+07
8998,42.854,-5.4357,4.5,4.67E+07
8999,43.693,-5.2005,6.5175,5.34E+07
9000,45.931,-6.8423,3.7713,2.77E+07
9001,41.611,-6.5197,6.4107,4.33E+07
9002,44.181,-8.3046,2.6552,2.44E+07
9003,45.585,-6.6857,6.2535,3.64E+07
9004,43.514,-8.7821,7.1932,3.72E+07
9005,45.077,-8.5427,5.5233,3.47E+07
9006,43.001,-6.8218,7.5061,4.55E+07
9007,39.523,-9.7233,4.5,6.53E+07
9008,40.52,-10.734,2.25,8.65E+07
9009,41.364,-7.0622,4.5,4.56E+07
9010,43.367,-11.872,4.0565,3.90E+07
9011,40.121,-8.1462,6.4107,4.48E+07
9012,42.69,-9.9312,2.6552,2.29E+07
9013,40.03,-11.882,6.4383,5.18E+07
9014,39.463,-9.6626,7.7088,5.20E+07
9015,42.023,-10.409,7.1932,4.08E+07
9016,41.845,-12.911,4.8427,4.92E+07
9017,43.587,-10.169,5.5233,3.62E+07
9018,41.412,-12.268,2.9138,6.05E+07
9019,42.622,-12.326,6.301,4.26E+07
9020,37.964,-7.2091,4.5,9.03E+07
9021,38.235,-11.206,2.2552,1.10E+08
9022,38.201,-9.0169,2.2532,1.07E+08
9023,39.847,-6.6182,4.5,6.87E+07
9024,36.712,-8.12,3.085,9.64E+07
9025,36.654,-9.5406,5.5956,8.92E+07
9026,38.604,-7.7022,6.4107,7.37E+07
9027,36.593,-10.477,3.3614,1.03E+08
9028,38.514,-11.438,6.4383,8.11E+07
9029,37.947,-9.2186,7.7088,8.03E+07
9030,38.1,-4.7578,2.2529,1.11E+08
9031,38.157,-6.9467,2.2563,1.07E+08
9032,34.663,-4.7658,5.2963,7.32E+07
9033,39.8,-4.5481,4.5,7.07E+07
9034,36.664,-6.0499,3.085,9.25E+07
9035,37.96,-3.2932,5.222,7.27E+07
9036,36.606,-7.4705,5.5956,8.19E+07
9037,38.556,-5.6321,6.4107,6.84E+07
9038,36.735,-3.1675,4.3092,8.82E+07
9039,37.283,-4.4092,6.0087,6.60E+07
9040,38.775,-3.8044,5.641,7.67E+07
9041,39.592,-19.61,-15.75,2.35E+08
9042,39.927,-19.454,-15.738,2.40E+08
9043,39.583,-19.601,-15.899,2.28E+08
9044,40,-19.109,-15.865,2.35E+08
9045,40,-19.293,-14.056,2.59E+08
9046,39.933,-19.52,-14.883,2.56E+08
9047,40,-16.434,-16.301,2.23E+08
9048,40,-16.926,-13.776,2.48E+08
9049,39.189,-19.005,-16.331,2.13E+08
9050,39.83,-19.428,-15.82,2.33E+08
9051,38.868,-19.509,-14.927,2.23E+08
9052,38.926,-18.244,-15.134,2.14E+08
9053,39.5,-19.967,-15.777,2.36E+08
9054,39.176,-20.091,-15.937,2.24E+08
9055,39.502,-19.972,-15.928,2.26E+08
9056,39.294,-20.272,-13.965,2.64E+08
9057,37.733,-20.706,-15.202,2.09E+08
9058,39.528,-20.026,-14.933,2.51E+08
9059,38.416,-20.324,-15.624,2.14E+08
9060,38.781,-19.495,-16.368,2.08E+08
9061,39.423,-19.918,-15.857,2.29E+08
9062,38.46,-19.999,-14.964,2.17E+08
9063,39.939,-19.449,-15.89,2.36E+08
9064,39.766,-19.749,-15.912,2.31E+08
9065,39.785,-19.817,-14.912,2.57E+08
9066,39.715,-19.746,-15.844,2.35E+08
9067,39.495,-19.965,-16.078,2.19E+08
9068,39.748,-19.688,-17.388,2.03E+08
9069,39.085,-20.022,-17.382,1.94E+08
9070,39.44,-19.922,-17.381,1.99E+08
9071,37.228,-20.423,-17.721,1.78E+08
9072,38.405,-20.307,-15.773,2.08E+08
9073,38.772,-19.486,-16.517,2.02E+08
9074,39.414,-19.909,-16.006,2.23E+08
9075,39.939,-19.441,-16.041,2.26E+08
9076,40,-19.026,-17.347,2.09E+08
9077,40,-16.422,-16.453,2.19E+08
9078,39.189,-18.994,-16.483,2.09E+08
9079,39.83,-19.417,-15.972,2.29E+08
9080,39.931,-19.389,-17.361,2.04E+08
9081,39.712,-19.739,-15.995,2.24E+08
9082,39.532,-21.117,-10.414,2.92E+08
9083,39.902,-21.451,-8.9189,3.05E+08
9084,38.454,-20.701,-9.572,2.38E+08
9085,37.777,-21.84,-7.551,2.03E+08
9086,38.347,-23.064,-7.9413,2.19E+08
9087,38.466,-20.177,-8.1334,2.19E+08
9088,39.839,-20.172,-12.31,2.94E+08
9089,39.868,-20.648,-10.632,3.16E+08
9090,37.897,-21.122,-13.353,2.55E+08
9091,39.612,-20.251,-13.103,2.87E+08
9092,38.337,-20.021,-11.26,2.44E+08
9093,38.573,-20.243,-13.152,2.59E+08
9094,40,-20.098,-10.682,3.03E+08
9095,39.943,-19.756,-13.244,2.76E+08
9096,40,-17.16,-12.128,2.71E+08
9097,38.631,-19.521,-11.386,2.30E+08
9098,38.868,-19.743,-13.278,2.46E+08
9099,38.926,-18.478,-13.486,2.37E+08
9100,38.631,-20.159,-9.6996,2.56E+08
9101,38.643,-19.635,-8.261,2.36E+08
9102,19,12.937,-54.614,1.22E+08
9103,19.5,11.97,-59.037,6.46E+07
9104,19.5,12.139,-57.43,9.06E+07
9105,19.505,12.305,-59.319,6.78E+07
9106,18.5,12.493,-58.841,1.04E+08
9107,18.5,12.715,-56.728,1.55E+08
9108,19.316,12.776,-55.661,9.59E+07
9109,18.991,10.895,-56.711,1.37E+08
9110,18.076,11.527,-58.635,8.77E+07
9111,19.217,12.207,-59.293,6.65E+07
9112,19,13.46,-49.642,1.14E+08
9113,18.5,12.977,-54.241,1.64E+08
9114,18.5,13.199,-52.128,2.05E+08
9115,18.5,13.421,-50.015,1.82E+08
9116,19.346,13.289,-50.677,1.04E+08
9117,19.316,13.037,-53.175,1.07E+08
9118,18.865,11.285,-52.006,1.66E+08
9119,18.991,11.157,-54.225,1.45E+08
9120,18.881,13.107,-50.333,1.70E+08
9121,19.5,13.237,-46.979,8.31E+07
9122,18.5,13.904,-45.415,1.70E+08
9123,18.5,13.682,-47.528,1.52E+08
9124,19.328,13.822,-45.53,6.63E+07
9125,19.34,13.536,-48.189,8.28E+07
9126,18.031,12.878,-45.361,1.52E+08
9127,18.881,13.368,-47.846,1.42E+08
9128,19,13.897,-45.489,7.94E+07
9129,20,11.432,-59.367,5.14E+07
9130,19.968,11.485,-61.248,2.99E+07
9131,20,9.1975,-60.757,7.04E+07
9132,19,11.787,-60.778,6.13E+07
9133,18.906,11.749,-61.139,5.64E+07
9134,18.78,11.708,-61.524,3.25E+07
9135,19.133,10.07,-60.972,3.28E+07
9136,18.576,10.821,-60.572,5.95E+07
9137,19.722,11.483,-61.23,2.82E+07
9138,20,12.505,-49.164,1.02E+08
9139,19,13.198,-47.352,1.61E+08
9140,19.88,13.329,-45.352,5.77E+07
9141,19.887,13.038,-48.011,8.33E+07
9142,20,10.315,-47.74,1.84E+08
9143,20,10.581,-45.83,1.45E+08
9144,18.346,11.345,-47.059,1.52E+08
9145,19.365,11.062,-49.343,1.57E+08
9146,18.531,12.393,-45.184,1.69E+08
9147,19.381,12.884,-47.67,1.43E+08
9148,20,11.929,-54.643,9.96E+07
9149,19.908,12.799,-50.374,9.63E+07
9150,19.894,12.565,-52.874,9.64E+07
9151,20,10.066,-50.102,2.03E+08
9152,20,10.179,-52.334,1.99E+08
9153,19.365,10.814,-51.705,1.76E+08
9154,19.967,11.658,-59.636,5.19E+07
9155,20,9.3665,-59.15,1.03E+08
9156,19,11.956,-59.17,8.81E+07
9157,19.894,12.237,-55.99,8.16E+07
9158,20,9.177,-57.283,1.69E+08
9159,20,9.8516,-55.451,1.80E+08
9160,19.491,10.358,-57.041,1.39E+08
9161,19.133,10.238,-59.364,6.44E+07
9162,18.576,10.99,-58.964,9.02E+07
9163,19.967,9.4144,-61.034,7.04E+07
9164,19.824,8.6247,-61.267,4.82E+07
9165,19.752,12.253,-57.863,5.26E+07
9166,19.069,10.287,-61.24,3.50E+07
9167,19.653,11.718,-61.498,3.08E+07
9168,39.924,-1.04,-60.066,1.89E+06
9169,39.924,-0.61732,-59.685,2.59E+06
9170,40,-1,-57.198,2.35E+06
9171,40,-3.0375,-59.471,3.57E+06
9172,40,-2.8081,-57.212,6.12E+06
9173,39.876,-2.0999,-60.055,2.33E+06
9174,39.966,-0.7398,-58.489,4.76E+06
9175,39.039,-1.4721,-59.25,2.63E+06
9176,39.397,-0.66552,-60.498,9.39E+05
9177,39.8,-0.64176,-60.083,9.63E+05
9178,39.625,-2.1311,-60.352,1.38E+06
9179,38.893,-1.5091,-59.602,1.26E+06
9180,39,-8.65E-02,-60.092,2.36E+06
9181,39.383,-7.61E-02,-59.685,2.76E+06
9182,37,2.52E-11,-59.685,1.77E+06
9183,39,2.76E-11,-57.198,2.98E+06
9184,39.499,-0.13326,-58.489,4.62E+06
9185,38.06,-8.98E-02,-60.099,3.12E+06
9186,38.539,-0.97211,-59.25,3.32E+06
9187,39.397,-0.22664,-60.103,1.52E+06
9188,38.06,-0.33701,-60.434,2.24E+06
9189,39.792,-0.3901,-58.489,4.11E+06
9190,38.893,-1.1186,-59.25,2.44E+06
9191,20,5.0658,-60.323,1.63E+08
9192,19.924,2.96,-60.486,1.76E+08
9193,20.227,1.8568,-59.945,2.62E+08
9194,20,3,-57.718,3.01E+08
9195,20.166,1.8891,-60.262,2.15E+08
9196,19.94,4.2734,-60.581,1.41E+08
9197,20,4.8764,-58.456,2.31E+08
9198,19.053,1.8424,-58.716,2.43E+08
9199,18.554,3.8075,-59.134,2.07E+08
9200,19.94,6.3392,-60.798,1.09E+08
9201,20,6.9422,-58.673,1.93E+08
9202,18.554,5.8734,-59.351,1.65E+08
9203,19.133,8.0037,-60.754,9.32E+07
9204,19.996,1.7878,-60.609,2.02E+08
9205,19.739,4.2385,-60.913,1.21E+08
9206,18.907,1.8055,-59.068,2.24E+08
9207,18.408,3.7706,-59.486,1.92E+08
9208,23,-8.65E-02,-60.092,2.31E+08
9209,21.847,0.23065,-59.718,2.76E+08
9210,25,3.60E-12,-59.685,1.56E+08
9211,23,1.70E-12,-57.515,2.54E+08
9212,24.028,-4.55E-02,-59.984,1.62E+08
9213,24.019,-1.0857,-59.038,1.74E+08
9214,21.703,-0.92724,-58.749,2.18E+08
9215,21.829,0.1451,-60.123,2.57E+08
9216,21.691,1.27E-02,-60.396,2.22E+08
9217,24.028,-0.24942,-60.346,1.55E+08
9218,21.703,-1.0927,-59.121,2.03E+08
9219,21.849,0.22971,-57.577,3.05E+08
9220,20.227,1.8554,-57.569,3.40E+08
9221,20.797,0.89205,-60.131,3.05E+08
9222,20.846,0.9117,-56.492,3.79E+08
9223,19.49,0.7846,-58.568,3.17E+08
9224,20.64,-0.48508,-58.811,2.68E+08
9225,29,1.08E-11,-59.685,4.99E+07
9226,25,5.30E-12,-57.515,1.74E+08
9227,28.333,1.46E-11,-57.771,7.92E+07
9228,26.028,-4.55E-02,-59.984,8.25E+07
9229,28.038,-8.65E-02,-60.092,4.74E+07
9230,26.019,-1.0857,-59.038,8.90E+07
9231,27.967,-1.9685,-58.813,5.82E+07
9232,33,1.80E-11,-59.685,1.61E+07
9233,32.432,1.97E-11,-56.732,3.94E+07
9234,30.333,1.82E-11,-57.771,5.90E+07
9235,32.038,-8.65E-02,-60.092,1.48E+07
9236,30.038,-8.65E-02,-60.092,2.50E+07
9237,31.962,-1.1107,-58.686,2.58E+07
9238,29.967,-1.9685,-58.813,3.63E+07
9239,37,2.40E-11,-57.198,5.27E+06
9240,34.432,2.33E-11,-56.732,3.09E+07
9241,36.06,-8.98E-02,-60.099,1.54E+06
9242,34.038,-8.65E-02,-60.092,3.82E+06
9243,36.539,-0.97211,-59.25,1.50E+06
9244,33.962,-1.1107,-58.686,1.48E+07
9245,35.231,-1.0965,-58.674,7.10E+06
9246,39.5,-0.5,0,6.72E+07
9247,39.375,-9.52E-02,0,8.05E+07
9248,39,1.20E-12,-2.4869,1.31E+08
9249,38.5,0,0,1.52E+08
9250,39.328,-5.53E-02,-1.6472,1.21E+08
9251,38.311,-0.75966,-1.0664,1.24E+08
9252,39.924,-0.61732,0,3.62E+07
9253,40,-1,-2.4869,9.04E+07
9254,40,-2.7169,0,4.04E+07
9255,39,-0.5,0,9.75E+07
9256,39.078,-2.6883,0,7.69E+07
9257,39.9,-0.5638,-1.6472,7.39E+07
9258,38.811,-1.2597,-1.0664,7.04E+07
9259,39.664,-0.25265,-1.6472,9.23E+07
9260,40,-1,-7.4607,2.29E+08
9261,40,-2.7169,-2.4869,1.10E+08
9262,39.078,-2.6883,-2.4869,1.62E+08
9263,40,-3.7127,-6.2032,2.06E+08
9264,40,-3.5187,-4.2571,1.72E+08
9265,39.9,-0.5638,-4.1341,1.77E+08
9266,39.89,-0.54407,-7.886,2.28E+08
9267,38.168,-2.0712,-5.7433,1.57E+08
9268,38.811,-1.2597,-3.5533,1.69E+08
9269,39.054,-1.5272,-7.2505,1.95E+08
9270,40,-1,-12.434,2.68E+08
9271,40,-4.1823,-11.417,2.51E+08
9272,40,-3.7127,-8.6901,2.39E+08
9273,39.89,-0.54407,-10.373,2.62E+08
9274,38.391,-2.2532,-11.32,2.16E+08
9275,38.437,-2.7077,-10.169,2.09E+08
9276,39.054,-1.5272,-9.7373,2.29E+08
9277,40,-1,-17.408,2.66E+08
9278,40,-4.1823,-13.904,2.56E+08
9279,40,-3.5952,-16.111,2.53E+08
9280,39.89,-0.54407,-12.86,2.67E+08
9281,39.924,-0.61744,-16.013,2.71E+08
9282,38.391,-2.2532,-13.807,2.21E+08
9283,39.025,-1.8482,-16.922,2.43E+08
9284,39.054,-1.5272,-12.224,2.34E+08
9285,40,-1,-22.382,2.51E+08
9286,40,-4,-20.521,2.31E+08
9287,40,-3.5952,-18.598,2.46E+08
9288,39.924,-0.61744,-18.499,2.65E+08
9289,39.924,-0.61744,-20.986,2.58E+08
9290,39.025,-1.8482,-19.409,2.37E+08
9291,39.11,-1.902,-21.697,2.35E+08
9292,40,-1,-27.356,2.27E+08
9293,40,-4,-23.008,2.22E+08
9294,40,-4.5221,-25.667,1.97E+08
9295,40,-2.7336,-26.745,2.26E+08
9296,39.924,-0.61744,-23.473,2.49E+08
9297,39.924,-0.61744,-25.96,2.39E+08
9298,39.11,-1.902,-24.184,2.26E+08
9299,40,-1,-32.329,1.87E+08
9300,40,-2.7336,-29.232,2.10E+08
9301,40,-2.625,-30.632,1.89E+08
9302,39.924,-0.61744,-28.447,2.23E+08
9303,39.924,-0.61744,-30.934,1.99E+08
9304,38.551,-1.5868,-28.499,2.03E+08
9305,39.11,-1.902,-26.671,2.10E+08
9306,38.827,-1.7961,-30.272,1.93E+08
9307,40,-1,-37.303,1.46E+08
9308,40,-3.1667,-35.616,1.52E+08
9309,40,-2.625,-33.119,1.65E+08
9310,39.924,-0.61744,-33.421,1.75E+08
9311,39.924,-0.61744,-35.908,1.60E+08
9312,38.614,-1.6819,-37.389,1.41E+08
9313,38.929,-1.3273,-34.781,1.60E+08
9314,38.827,-1.7961,-32.759,1.69E+08
9315,40,-1,-42.277,1.02E+08
9316,40,-3.25,-41.211,9.36E+07
9317,40,-3.1667,-38.103,1.34E+08
9318,39.924,-0.61744,-38.394,1.42E+08
9319,39.924,-0.61744,-40.881,1.20E+08
9320,38.614,-1.6819,-39.876,1.23E+08
9321,40,-1,-47.251,5.45E+07
9322,40,-3.25,-43.698,6.84E+07
9323,40,-3.1103,-46.667,5.01E+07
9324,39.924,-0.61744,-43.368,9.45E+07
9325,39.924,-0.61744,-45.855,6.92E+07
9326,38.614,-1.6819,-42.362,9.86E+07
9327,38.853,-1.5946,-45.289,7.33E+07
9328,40,-1,-52.225,1.56E+07
9329,40,-3.1103,-49.154,2.76E+07
9330,40,-2.8081,-52.239,1.35E+07
9331,39.924,-0.61744,-48.342,4.67E+07
9332,39.934,-0.64212,-50.964,2.44E+07
9333,38.853,-1.5946,-47.776,5.16E+07
9334,38.931,-1.738,-50.508,3.08E+07
9335,39.5,-0.5,-54.711,4.06E+06
9336,40,-2.8081,-54.726,5.75E+06
9337,39.957,-0.74204,-56.002,3.53E+06
9338,39.918,-0.64804,-53.451,8.45E+06
9339,39.039,-1.4721,-56.763,2.05E+06
9340,38.931,-1.738,-52.995,1.65E+07
9341,39,2.52E-11,-52.225,2.69E+07
9342,36.432,2.57E-11,-54.246,3.25E+07
9343,39.5,-2.3081,-54.726,4.47E+06
9344,39.482,-0.16213,-56.002,1.48E+06
9345,39.398,-0.10646,-53.451,1.27E+07
9346,38.539,-0.97211,-56.763,3.62E+06
9347,37.231,-1.0965,-56.187,8.36E+06
9348,37.274,-1.7174,-54.447,1.82E+07
9349,38.431,-1.238,-52.995,2.07E+07
9350,39,2.28E-11,-47.251,6.86E+07
9351,36.039,2.42E-11,-48.891,7.71E+07
9352,36.432,2.45E-11,-51.759,4.65E+07
9353,39.383,-7.62E-02,-48.342,5.34E+07
9354,39.407,-8.67E-02,-50.964,3.15E+07
9355,38.353,-1.0946,-47.776,5.95E+07
9356,38.431,-1.238,-50.508,3.88E+07
9357,39,2.04E-11,-42.277,1.16E+08
9358,36.039,2.30E-11,-46.404,9.68E+07
9359,36.333,2.33E-11,-43.528,1.18E+08
9360,39.383,-7.62E-02,-43.368,1.01E+08
9361,39.383,-7.62E-02,-45.855,7.63E+07
9362,38.114,-1.1819,-42.362,1.07E+08
9363,38.353,-1.0946,-45.289,8.19E+07
9364,39,1.80E-11,-37.303,1.53E+08
9365,36.298,2.20E-11,-38.267,1.57E+08
9366,36.333,2.21E-11,-41.042,1.41E+08
9367,39.383,-7.62E-02,-38.394,1.48E+08
9368,39.383,-7.62E-02,-40.881,1.26E+08
9369,38.114,-1.1819,-39.876,1.31E+08
9370,38.429,-0.82727,-37.268,1.49E+08
9371,39,1.56E-11,-32.329,1.86E+08
9372,36.298,2.08E-11,-35.78,1.69E+08
9373,36.266,2.08E-11,-33.271,1.72E+08
9374,39.383,-7.62E-02,-33.421,1.76E+08
9375,39.383,-7.62E-02,-35.908,1.60E+08
9376,38.429,-0.82727,-34.781,1.62E+08
9377,39,1.32E-11,-27.356,2.24E+08
9378,36.038,1.94E-11,-28.302,1.97E+08
9379,36.266,1.96E-11,-30.785,1.91E+08
9380,39.383,-7.62E-02,-28.447,2.20E+08
9381,39.383,-7.62E-02,-30.934,1.96E+08
9382,38.051,-1.0868,-28.499,2.01E+08
9383,38.429,-0.82727,-32.294,1.82E+08
9384,38.327,-1.2961,-30.272,1.91E+08
9385,39,1.08E-11,-22.382,2.47E+08
9386,36.038,1.82E-11,-25.816,2.14E+08
9387,37.103,1.90E-11,-23.724,2.21E+08
9388,39.383,-7.62E-02,-23.473,2.48E+08
9389,39.383,-7.62E-02,-25.96,2.38E+08
9390,38.051,-1.0868,-26.013,2.18E+08
9391,38.61,-1.402,-24.184,2.26E+08
9392,39,8.41E-12,-17.408,2.51E+08
9393,37.103,1.78E-11,-21.237,2.26E+08
9394,36.828,1.76E-11,-19.249,2.16E+08
9395,39.383,-7.62E-02,-18.499,2.61E+08
9396,39.383,-7.62E-02,-20.986,2.54E+08
9397,37.891,-1.7532,-16.294,2.11E+08
9398,38.525,-1.3482,-19.409,2.33E+08
9399,38.61,-1.402,-21.697,2.31E+08
9400,39,6.01E-12,-12.434,2.39E+08
9401,35.985,1.58E-11,-14.81,1.88E+08
9402,36.779,1.64E-11,-12.652,1.83E+08
9403,36.828,1.64E-11,-16.762,2.14E+08
9404,39.307,-4.83E-02,-12.86,2.55E+08
9405,39.383,-7.62E-02,-16.013,2.59E+08
9406,37.891,-1.7532,-13.807,2.09E+08
9407,38.554,-1.0272,-12.224,2.22E+08
9408,39,3.60E-12,-7.4607,2.03E+08
9409,36.779,1.52E-11,-10.165,1.74E+08
9410,37.314,1.56E-11,-8.401,1.73E+08
9411,39.307,-4.83E-02,-10.373,2.45E+08
9412,38.554,-1.0272,-9.7373,2.12E+08
9413,38.5,1.20E-12,-2.4869,1.77E+08
9414,37.029,1.42E-11,-4.0091,1.39E+08
9415,37.314,1.44E-11,-5.9141,1.52E+08
9416,39.328,-5.53E-02,-4.1341,1.70E+08
9417,39.307,-4.83E-02,-7.886,2.18E+08
9418,37.668,-1.5712,-5.7433,1.51E+08
9419,38.311,-0.75966,-3.5533,1.64E+08
9420,38.554,-1.0272,-7.2505,1.86E+08
9421,39.924,-9.1898,-59.209,5.51E+06
9422,40,-7.1124,-59.043,4.01E+06
9423,40,-11.124,-58.436,6.66E+06
9424,40,-9.5749,-57.164,8.72E+06
9425,40,-8.691,-56.798,6.49E+06
9426,39.974,-10.01,-58.935,5.66E+06
9427,39.951,-8.4084,-59.218,4.12E+06
9428,39.136,-8.6718,-58.494,6.12E+06
9429,39.071,-9.7462,-58.028,7.99E+06
9430,39.812,-10.073,-59.285,4.94E+06
9431,39.76,-8.444,-59.556,3.83E+06
9432,38.99,-8.7087,-58.846,5.80E+06
9433,38.924,-9.7831,-58.379,7.12E+06
9434,40,-6.6536,-57.012,5.63E+06
9435,40,-4.8455,-56.998,6.42E+06
9436,39.876,-4.1373,-59.841,2.79E+06
9437,39.951,-6.3709,-59.432,2.07E+06
9438,37.997,-5.5373,-58.065,3.04E+06
9439,39.136,-6.6343,-58.709,4.44E+06
9440,39.039,-3.5096,-59.036,3.23E+06
9441,39.924,-19.383,-47.889,1.32E+07
9442,40,-18.816,-49.893,1.28E+07
9443,40,-19,-45.455,7.62E+06
9444,39.918,-19.368,-48.69,1.27E+07
9445,40,-16.806,-47.649,7.06E+06
9446,39.936,-19.352,-47.019,1.24E+07
9447,38.108,-17.742,-47.275,8.20E+06
9448,39.165,-18.62,-48.709,1.03E+07
9449,39.68,-19.707,-48.685,1.28E+07
9450,39.73,-19.683,-47.019,1.24E+07
9451,39.018,-18.974,-48.709,1.04E+07
9452,40,-14.696,-56.616,7.90E+06
9453,40,-11.497,-56.595,9.19E+06
9454,40,-12.381,-56.229,1.20E+07
9455,39.974,-11.989,-58.384,6.24E+06
9456,39.937,-13.964,-57.546,6.02E+06
9457,38.614,-13.536,-56.731,7.28E+06
9458,39.071,-11.668,-57.458,8.46E+06
9459,40,-17.379,-53.636,1.00E+07
9460,40,-14.337,-54.125,9.58E+06
9461,40,-13.971,-55.009,1.26E+07
9462,39.946,-15.559,-56.323,6.27E+06
9463,39.945,-17.045,-54.706,8.88E+06
9464,38.614,-15.126,-55.511,7.78E+06
9465,40,-15.385,-52.415,1.13E+07
9466,40,-15.019,-51.532,1.00E+07
9467,39.935,-19.01,-50.665,1.25E+07
9468,39.945,-18.136,-52.944,1.09E+07
9469,39.939,-18.777,-51.429,1.22E+07
9470,40,-16.441,-49.62,7.16E+06
9471,38.264,-17.038,-51.084,8.19E+06
9472,38.614,-16.174,-53.802,8.60E+06
9473,39.165,-18.255,-50.68,1.02E+07
9474,39.924,-19.383,-18.678,1.85E+08
9475,40,-19,-21.113,1.57E+08
9476,40,-16.373,-17.784,1.97E+08
9477,40,-16.192,-20.693,1.70E+08
9478,39.944,-19.33,-19.536,1.72E+08
9479,39.189,-18.945,-17.814,1.86E+08
9480,39.83,-19.368,-17.303,2.08E+08
9481,39.071,-18.367,-20.487,1.59E+08
9482,39.383,-19.924,-18.678,1.76E+08
9483,39,-20,-21.113,1.40E+08
9484,37.972,-20,-20.688,1.41E+08
9485,37.09,-20.264,-18.925,1.54E+08
9486,39.434,-19.901,-19.536,1.63E+08
9487,38.689,-19.445,-17.814,1.78E+08
9488,38.571,-18.867,-20.487,1.50E+08
9489,39.746,-19.666,-19.536,1.69E+08
9490,39.042,-19.299,-17.814,1.83E+08
9491,38.924,-18.72,-20.487,1.56E+08
9492,39,-20,-25.981,9.06E+07
9493,36.641,-20,-24.952,9.59E+07
9494,37.921,-20,-23.094,1.12E+08
9495,39.434,-19.901,-21.97,1.33E+08
9496,39.383,-19.924,-24.612,1.05E+08
9497,37.927,-18.859,-25.522,1.01E+08
9498,38.571,-18.867,-22.921,1.20E+08
9499,39,-20,-30.849,4.79E+07
9500,36.641,-20,-27.386,7.66E+07
9501,39.383,-19.924,-27.046,8.51E+07
9502,39.383,-19.924,-29.48,6.22E+07
9503,37.194,-20,-29.659,5.74E+07
9504,37.927,-18.859,-27.956,8.16E+07
9505,39,-20,-35.718,1.94E+07
9506,39.383,-19.924,-31.914,3.91E+07
9507,39.383,-19.924,-34.348,2.17E+07
9508,36.452,-20,-34.116,3.34E+07
9509,37.194,-20,-32.093,3.80E+07
9510,37.773,-18.31,-32.9,4.80E+07
9511,37.706,-18.544,-35.226,3.74E+07
9512,37.927,-18.859,-30.391,5.93E+07
9513,39,-20,-40.586,8.33E+06
9514,39.383,-19.924,-36.783,1.54E+07
9515,39.389,-19.921,-39.402,9.61E+06
9516,36.452,-20,-36.55,3.02E+07
9517,36.84,-20,-39.218,2.31E+07
9518,37.706,-18.544,-37.66,3.18E+07
9519,38.395,-18.926,-38.688,2.20E+07
9520,39.413,-19.911,-44.585,7.71E+06
9521,39.389,-19.921,-41.836,4.19E+06
9522,36.84,-20,-41.653,1.94E+07
9523,37.002,-20,-43.613,1.31E+07
9524,37.707,-18.357,-42.756,1.49E+07
9525,37.608,-18.242,-44.841,1.02E+07
9526,38.395,-18.926,-41.122,1.57E+07
9527,40,-19,-40.586,8.82E+06
9528,40,-16.806,-45.215,1.94E+06
9529,40,-16.75,-42.39,1.08E+07
9530,39.936,-19.352,-44.585,6.92E+06
9531,39.926,-19.376,-41.836,2.21E+06
9532,38.207,-17.857,-42.756,1.30E+07
9533,38.108,-17.742,-44.841,7.85E+06
9534,38.895,-18.426,-41.122,1.44E+07
9535,40,-19,-35.718,2.64E+07
9536,40,-16.75,-39.956,1.98E+07
9537,40,-16.767,-36.967,4.59E+07
9538,39.924,-19.383,-36.783,1.89E+07
9539,39.926,-19.376,-39.402,1.20E+07
9540,38.206,-18.044,-37.66,3.31E+07
9541,38.895,-18.426,-38.688,2.35E+07
9542,40,-19,-30.849,6.05E+07
9543,40,-16.767,-34.533,5.41E+07
9544,40,-17.036,-31.969,7.79E+07
9545,39.924,-19.383,-31.914,4.46E+07
9546,39.924,-19.383,-34.348,2.66E+07
9547,38.273,-17.81,-32.9,5.12E+07
9548,38.206,-18.044,-35.226,4.03E+07
9549,40,-19,-25.981,1.06E+08
9550,40,-17.036,-29.535,1.03E+08
9551,40,-17.375,-27.423,1.06E+08
9552,39.924,-19.383,-27.046,9.27E+07
9553,39.924,-19.383,-29.48,6.99E+07
9554,38.273,-17.81,-30.465,7.48E+07
9555,38.427,-18.359,-27.956,8.79E+07
9556,39.071,-18.367,-25.355,1.08E+08
9557,40,-16.192,-23.127,1.39E+08
9558,40,-17.375,-24.989,1.26E+08
9559,39.944,-19.33,-21.97,1.41E+08
9560,39.924,-19.383,-24.612,1.13E+08
9561,39.071,-18.367,-22.921,1.27E+08
9562,9.8938,-20,-42.095,6.44E+07
9563,8.354,-20,-43.346,5.28E+07
9564,7.6334,-20.276,-40.898,7.89E+07
9565,6.7792,-19.968,-41.886,7.65E+07
9566,7.2135,-19.491,-43.502,5.52E+07
9567,7.659,-19.84,-43.401,4.75E+07
9568,7.3166,-19.854,-42.764,8.77E+07
9569,8.0047,-18.671,-42.987,6.58E+07
9570,7.3288,-19.146,-42.167,6.49E+07
9571,8.5884,-19.209,-41.972,6.17E+07
9572,14.227,-20,-40.835,7.70E+07
9573,10.166,-20,-42.932,5.75E+07
9574,9.5791,-20.291,-40.443,8.90E+07
9575,12.682,-20.399,-39.289,9.42E+07
9576,13.3,-20,-43.131,6.35E+07
9577,12.4,-18.681,-39.758,8.24E+07
9578,11.6,-18.575,-43.032,7.23E+07
9579,10.995,-19.125,-39.865,8.17E+07
9580,13.421,-18.097,-41.828,7.78E+07
9581,11.067,-17.986,-41.359,7.94E+07
9582,10.538,-19.209,-41.514,7.08E+07
9583,18.635,-20,-39.021,7.89E+07
9584,15.041,-20.392,-38.467,9.71E+07
9585,17.191,-20.382,-37.58,9.49E+07
9586,15.67,-20,-42.305,6.72E+07
9587,17.8,-20,-41.873,6.60E+07
9588,14.77,-18.681,-38.932,8.54E+07
9589,18.063,-18.952,-37.297,8.62E+07
9590,15.792,-18.097,-41.003,8.13E+07
9591,18.648,-17.924,-41.099,7.77E+07
9592,16.93,-17.519,-39.247,8.64E+07
9593,15.65,-17.829,-37.899,8.76E+07
9594,22.6,-20,-36.867,7.69E+07
9595,19.219,-20.373,-36.61,9.28E+07
9596,21.02,-20.377,-35.595,9.15E+07
9597,22.05,-20,-40.74,6.21E+07
9598,19.836,-20,-40.901,6.49E+07
9599,23.068,-20,-39.02,6.50E+07
9600,21.927,-18.151,-38.17,7.84E+07
9601,20.099,-18.952,-36.324,8.41E+07
9602,20.684,-17.924,-40.127,7.61E+07
9603,18.966,-17.519,-38.275,8.46E+07
9604,26.318,-20,-34.311,7.32E+07
9605,22.936,-20.368,-34.418,9.11E+07
9606,24.647,-20.298,-33.439,8.82E+07
9607,26.929,-20,-37.051,6.39E+07
9608,24.991,-20,-37.84,6.43E+07
9609,25.884,-18.002,-35.868,7.84E+07
9610,24.527,-18.592,-33.583,7.95E+07
9611,23.85,-18.151,-36.991,7.77E+07
9612,22.022,-18.952,-35.145,8.34E+07
9613,29.751,-20,-31.381,6.97E+07
9614,26.427,-20.292,-32.072,8.61E+07
9615,27.771,-20.379,-30.612,8.64E+07
9616,28.72,-20,-35.678,6.06E+07
9617,30.988,-20,-33.919,5.84E+07
9618,27.674,-18.002,-34.494,7.57E+07
9619,29.59,-17.949,-32.716,7.27E+07
9620,28.645,-18.412,-30.15,7.90E+07
9621,26.317,-18.592,-32.21,7.73E+07
9622,29.975,-17.994,-34.641,7.14E+07
9623,27.71,-17.433,-32.744,7.54E+07
9624,32.859,-20,-28.11,7.77E+07
9625,29.396,-20.375,-29.069,8.87E+07
9626,30.964,-20.377,-27.387,9.36E+07
9627,32.626,-20,-32.367,5.76E+07
9628,33.368,-20,-30.345,6.07E+07
9629,31.228,-17.949,-31.164,7.38E+07
9630,32.509,-18.325,-29.102,7.99E+07
9631,30.282,-18.412,-28.597,8.14E+07
9632,35.61,-20,-24.532,9.99E+07
9633,32.425,-20.368,-25.677,1.03E+08
9634,33.633,-20.374,-24.048,1.08E+08
9635,34.835,-20,-28.63,6.90E+07
9636,33.985,-18.624,-24.62,9.67E+07
9637,33.976,-18.325,-27.388,9.04E+07
9638,31.749,-18.412,-26.883,9.06E+07
9639,35.567,-18.859,-26.927,8.91E+07
9640,34.908,-20.365,-22.195,1.22E+08
9641,36.012,-20.264,-20.902,1.28E+08
9642,35.265,-18.624,-22.762,1.10E+08
9643,36.847,-18.859,-25.069,1.04E+08
9644,37.491,-18.867,-22.468,1.22E+08
9645,7.926,-19.886,-44.272,4.11E+07
9646,11.634,-20,-44.47,4.90E+07
9647,8.2877,-18.671,-43.869,5.82E+07
9648,8.5528,-19.123,-45.102,4.08E+07
9649,9.9335,-18.575,-44.372,5.57E+07
9650,8.8714,-19.209,-42.853,5.46E+07
9651,34.403,-24.893,-16.703,1.68E+08
9652,34.582,-27.145,-16.2,1.51E+08
9653,35.46,-24.044,-14.564,1.85E+08
9654,33.861,-23.482,-15.257,1.57E+08
9655,33.85,-25.677,-13.831,1.42E+08
9656,34.304,-24.124,-13.791,1.54E+08
9657,34.703,-23.249,-16.807,1.70E+08
9658,36.514,-21.777,-14.854,2.03E+08
9659,35.909,-21.392,-17.117,1.71E+08
9660,36.02,-22.453,-14.793,1.93E+08
9661,37.041,-21.157,-15.213,1.97E+08
9662,34.413,-21.914,-15.484,1.59E+08
9663,35.662,-20.97,-14.599,1.73E+08
9664,9.3432,-24.893,-37.084,9.35E+07
9665,7.1129,-22.77,-38.109,9.67E+07
9666,5.941,-24.811,-37.781,9.83E+07
9667,6.0344,-23.21,-38.069,1.11E+08
9668,6.1614,-27.263,-37.685,6.40E+07
9669,8.1316,-26.735,-37.324,6.72E+07
9670,6.5421,-23.837,-36.221,1.10E+08
9671,7.0496,-26.076,-35.894,1.06E+08
9672,32.061,-24.893,-20.848,1.50E+08
9673,32.504,-26.927,-20.059,1.33E+08
9674,33.503,-27.145,-18.329,1.41E+08
9675,32.971,-23.005,-20.182,1.45E+08
9676,33.922,-22.725,-18.813,1.43E+08
9677,34.485,-24.044,-16.743,1.72E+08
9678,30.363,-24.207,-17.646,1.45E+08
9679,31.434,-23.401,-19.843,1.44E+08
9680,32.821,-23.482,-17.399,1.47E+08
9681,32.811,-25.677,-15.973,1.33E+08
9682,31.526,-26.171,-18.943,1.34E+08
9683,29.222,-24.893,-24.67,1.35E+08
9684,31.192,-26.926,-22.044,1.25E+08
9685,29.784,-26.875,-23.914,1.16E+08
9686,30.478,-23.006,-23.779,1.32E+08
9687,31.679,-23.002,-22.158,1.35E+08
9688,30.136,-23.401,-21.839,1.37E+08
9689,30.229,-26.171,-20.938,1.27E+08
9690,28.83,-24.939,-22.63,1.35E+08
9691,25.931,-24.893,-28.11,1.22E+08
9692,26.68,-27.34,-27.316,9.48E+07
9693,28.236,-26.875,-25.723,1.08E+08
9694,27.413,-23.017,-27.249,1.18E+08
9695,28.968,-23.014,-25.593,1.25E+08
9696,25.517,-22.919,-26.792,1.28E+08
9697,25.982,-25.964,-25.847,1.23E+08
9698,26.941,-23.19,-25.432,1.29E+08
9699,27.295,-24.939,-24.449,1.28E+08
9700,22.237,-24.893,-31.114,1.09E+08
9701,24.928,-27.341,-28.924,8.81E+07
9702,23.045,-27.725,-30.432,7.74E+07
9703,22.659,-23.025,-31.31,1.12E+08
9704,24.265,-22.809,-30.209,1.08E+08
9705,25.68,-23.031,-28.881,1.13E+08
9706,22.668,-24.225,-26.817,1.45E+08
9707,22.066,-26.092,-29.557,1.12E+08
9708,23.768,-22.919,-28.406,1.22E+08
9709,24.233,-25.964,-27.461,1.17E+08
9710,22.337,-23.7,-29.415,1.23E+08
9711,18.199,-24.893,-33.636,9.89E+07
9712,21.107,-27.724,-31.806,7.08E+07
9713,18.956,-28.777,-33.098,5.80E+07
9714,18.94,-23.03,-33.687,1.05E+08
9715,20.711,-23.002,-32.643,1.06E+08
9716,18.666,-23.464,-31.713,1.17E+08
9717,18.123,-26.795,-31.811,1.05E+08
9718,20.129,-26.092,-30.942,1.06E+08
9719,20.401,-23.7,-30.799,1.16E+08
9720,13.879,-24.893,-35.636,9.41E+07
9721,14.922,-27.295,-35.148,6.34E+07
9722,16.858,-28.777,-34.214,5.49E+07
9723,14.738,-23.067,-35.709,1.04E+08
9724,16.851,-23.016,-34.786,1.03E+08
9725,13.995,-22.556,-34.506,1.06E+08
9726,16.572,-23.464,-32.846,1.15E+08
9727,16.029,-26.795,-32.944,1.03E+08
9728,14.541,-24.621,-33.352,1.18E+08
9729,13.749,-26.692,-34.066,9.89E+07
9730,9.4103,-22.803,-37.591,9.63E+07
9731,12.706,-27.296,-36.009,6.13E+07
9732,10.439,-26.735,-36.746,6.54E+07
9733,12.511,-23.055,-36.554,1.03E+08
9734,10.423,-23.684,-33.538,1.33E+08
9735,10.588,-25.639,-33.487,1.38E+08
9736,8.8504,-23.837,-35.639,1.09E+08
9737,11.777,-22.556,-35.37,1.05E+08
9738,9.358,-26.076,-35.312,1.05E+08
9739,12.322,-24.621,-34.216,1.16E+08
9740,11.531,-26.692,-34.93,9.74E+07
9741,6.4377,-20.417,-40.501,1.03E+08
9742,6.2332,-21.365,-39.213,1.23E+08
9743,10.509,-21.343,-38.421,1.16E+08
9744,5.7219,-19.505,-39.795,1.11E+08
9745,6.7167,-21.927,-37.156,1.17E+08
9746,9.6432,-20.646,-36.888,1.14E+08
9747,7.0449,-19.683,-40.645,9.18E+07
9748,8.7622,-19.662,-38.802,1.04E+08
9749,6.5923,-20.011,-37.731,1.14E+08
9750,8.3045,-19.746,-40.45,9.01E+07
9751,7.4967,-18.936,-39.051,1.06E+08
9752,36.058,-22.474,-14.667,1.98E+08
9753,37.073,-21.173,-15.083,2.02E+08
9754,35.697,-20.989,-14.471,1.78E+08
9755,34.89,-22.575,-13.889,1.60E+08
9756,36.906,-20.625,-12.541,1.97E+08
9757,37.142,-20.846,-14.433,2.09E+08
9758,40,-9.5847,0,7.67E+07
9759,39.161,-12.218,0,1.26E+08
9760,39.131,-10.028,0,1.14E+08
9761,42.66,-12.264,-0.77452,8.63E+07
9762,41.043,-12.915,-2.1933,1.57E+08
9763,41.265,-10.286,-1.5972,6.83E+07
9764,42.171,-10.498,0.40522,7.46E+07
9765,40.893,-12.836,0.66375,1.10E+08
9766,40,-6.1508,0,4.84E+07
9767,39.078,-4.4052,0,9.25E+07
9768,40,-5.2357,-1.7702,8.91E+07
9769,39.078,-6.1222,0,8.72E+07
9770,39.131,-8.3112,0,8.19E+07
9771,40,-6.9526,-1.7702,8.44E+07
9772,40,-12.31,-32.043,1.63E+08
9773,40,-12.31,-33.957,1.34E+08
9774,37.5,-12.5,-33,1.75E+08
9775,40,-13.517,-34.391,1.28E+08
9776,40,-13.786,-31.828,1.51E+08
9777,38.273,-14.56,-32.758,1.24E+08
9778,38.3,-13.122,-31.123,1.47E+08
9779,40,-10.957,-30.69,8.52E+07
9780,40,-9.0433,-30.69,1.06E+08
9781,40,-9.0221,-28.483,9.03E+07
9782,40,-11.167,-29.197,6.73E+07
9783,38.143,-10.101,-30.502,2.89E+07
9784,40,-7.6903,-32.043,2.10E+08
9785,40,-7.6903,-33.957,1.62E+08
9786,40,-6.4167,-34.708,1.94E+08
9787,40,-5.875,-32.211,2.07E+08
9788,38.09,-7.5006,-32.945,2.24E+08
9789,40,-9.0433,-35.31,7.58E+07
9790,40,-10.957,-35.31,8.75E+07
9791,40,-9.9261,-36.989,5.44E+07
9792,38.193,-9.8978,-35.498,6.23E+07
9793,37.5,-12.31,-32.043,1.58E+08
9794,40,-12.05,-29.563,1.34E+08
9795,40,-13.42,-30.944,1.28E+08
9796,38.143,-11.049,-30.731,8.87E+07
9797,38.3,-12.756,-30.239,1.31E+08
9798,40,-8.1382,-28.849,1.72E+08
9799,40,-6.3498,-29.927,1.92E+08
9800,40,-6.2411,-31.327,1.68E+08
9801,38.143,-9.1372,-30.654,1.13E+08
9802,38.09,-7.712,-31.992,1.93E+08
9803,38.515,-7.3824,-30.212,1.80E+08
9804,40,-9.0422,-36.623,5.56E+07
9805,40,-6.7829,-35.591,1.08E+08
9806,38.09,-7.6697,-33.905,1.38E+08
9807,38.193,-8.9497,-35.269,6.28E+07
9808,35,-11.768,-34.768,1.01E+08
9809,37.5,-12.31,-33.957,1.25E+08
9810,40,-10.81,-36.623,6.62E+07
9811,40,-13.151,-35.275,8.02E+07
9812,38.193,-10.862,-35.347,6.41E+07
9813,37.609,-12.928,-35.871,8.55E+07
9814,40,-12.31,-52.043,1.12E+07
9815,40,-12.31,-53.957,1.41E+07
9816,37.5,-12.5,-53,1.72E+07
9817,38.264,-14.153,-51.669,9.18E+06
9818,38.614,-13.289,-54.386,8.62E+06
9819,40,-10.957,-50.69,1.31E+07
9820,40,-9.0433,-50.69,9.15E+06
9821,40,-12.306,-48.955,7.87E+06
9822,40,-9.5581,-48.183,1.09E+07
9823,38.143,-10.101,-50.502,1.32E+07
9824,38.245,-10.194,-49.242,1.33E+07
9825,40,-7.6903,-52.043,6.45E+06
9826,40,-7.6903,-53.957,8.09E+06
9827,40,-6.3603,-50.785,1.12E+07
9828,40,-6.0581,-53.87,8.83E+06
9829,38.102,-7.5002,-53.028,1.84E+07
9830,37.591,-6.2089,-51.618,2.76E+07
9831,38.931,-4.988,-52.139,1.75E+07
9832,40,-9.0433,-55.31,9.14E+06
9833,40,-10.957,-55.31,1.43E+07
9834,38.193,-9.8978,-55.498,1.06E+07
9835,39.071,-10.171,-56.363,1.01E+07
9836,37.5,-12.31,-52.043,1.80E+07
9837,40,-13.19,-49.321,7.71E+06
9838,38.143,-11.049,-50.731,1.38E+07
9839,38.245,-11.078,-49.608,1.50E+07
9840,38.264,-13.787,-50.785,9.13E+06
9841,40,-8.6742,-48.549,1.06E+07
9842,40,-6.7264,-49.901,1.42E+07
9843,38.143,-9.1372,-50.654,9.56E+06
9844,38.102,-7.6797,-52.069,1.60E+07
9845,36.489,-8.0272,-51.464,2.92E+07
9846,37.591,-6.575,-50.735,2.67E+07
9847,38.245,-9.31,-49.608,1.12E+07
9848,35.811,-8.2499,-49.854,3.13E+07
9849,40,-6.4242,-54.754,8.70E+06
9850,38.102,-7.7012,-53.983,1.69E+07
9851,38.193,-8.9497,-55.269,7.91E+06
9852,37.997,-7.116,-55.821,5.43E+06
9853,39.136,-8.213,-56.464,6.14E+06
9854,39.071,-9.2874,-55.997,8.14E+06
9855,37.5,-12.31,-53.957,1.89E+07
9856,38.193,-10.862,-55.347,1.37E+07
9857,38.614,-12.923,-55.27,1.19E+07
9858,39.071,-11.055,-55.997,1.28E+07
9859,38.382,-11.768,-54.768,1.58E+07
9860,101.83,20.774,21.902,3.25E+07
9861,100.27,18.949,21.5,4.10E+07
9862,99.922,21.341,21.5,3.41E+07
9863,103.27,22.22,21.5,3.97E+07
9864,101.27,22.801,21.5,3.40E+07
9865,102.17,21.019,18.167,4.63E+07
9866,101.04,19.786,19.618,4.70E+07
9867,103.39,22.354,18.833,4.30E+07
9868,101.28,22.095,19.841,3.78E+07
9869,100.84,20.246,21.046,4.01E+07
9870,101.23,20.934,22.43,1.95E+07
9871,99.206,19.266,22.5,2.36E+07
9872,98.584,21.841,22.5,1.34E+07
9873,99.392,21.529,22,2.09E+07
9874,99.596,19.143,22.429,2.70E+07
9875,100.16,18.943,21.895,3.10E+07
9876,99.755,21.399,21.863,2.45E+07
9877,98.516,17.439,22.188,3.43E+07
9878,99.128,19.514,21.85,2.70E+07
9879,69.814,-12.81,22.5,6.80E+07
9880,68.463,-14.851,22.424,6.79E+07
9881,66.485,-16.295,22.5,6.22E+07
9882,67.709,-15.438,22.471,6.46E+07
9883,68.966,-14.092,22.47,6.92E+07
9884,66.74,-11.661,22.5,4.57E+07
9885,65.175,-13.494,22.5,5.06E+07
9886,68.444,-13.477,21.173,6.81E+07
9887,66.805,-14.999,21.398,6.51E+07
9888,95.94,15.702,22.5,3.76E+07
9889,96.994,20.165,22.5,1.99E+07
9890,97.776,19.79,22,2.86E+07
9891,96.54,15.736,22.408,3.95E+07
9892,94.966,18.267,22.5,2.53E+07
9893,95.909,17.709,21.441,3.22E+07
9894,95.954,19.265,21.69,2.68E+07
9895,97.125,17.837,21.987,3.23E+07
9896,92.674,12.138,22.5,4.59E+07
9897,94.907,13.954,22.408,4.48E+07
9898,93.409,12.367,22.422,4.74E+07
9899,93.333,16.485,22.5,3.04E+07
9900,92.112,14.079,22.5,3.58E+07
9901,94.276,15.928,21.441,3.74E+07
9902,93.437,14.548,21.447,4.03E+07
9903,93.04,13.058,21.458,4.56E+07
9904,89.408,8.5737,22.5,5.14E+07
9905,90.224,8.8405,22.407,5.37E+07
9906,91.776,10.585,22.422,5.03E+07
9907,88.249,11.48,22.5,3.42E+07
9908,90.479,12.297,22.5,3.87E+07
9909,89.798,9.9044,21.522,4.93E+07
9910,91.407,11.276,21.458,4.85E+07
9911,86.143,5.0098,22.5,5.70E+07
9912,88.591,7.0585,22.407,5.63E+07
9913,84.832,7.5498,22.5,3.83E+07
9914,86.617,9.6975,22.5,3.68E+07
9915,88.165,8.1224,21.522,5.19E+07
9916,86.331,6.6129,21.421,5.25E+07
9917,82.877,1.4458,22.5,6.24E+07
9918,86.958,5.2765,22.407,5.93E+07
9919,83.679,1.7194,22.414,6.54E+07
9920,83.199,5.7678,22.5,4.10E+07
9921,81.387,4.0756,22.5,4.02E+07
9922,82.642,3.0087,21.159,5.69E+07
9923,84.698,4.8309,21.421,5.54E+07
9924,79.611,-2.1182,22.5,6.74E+07
9925,82.046,-6.26E-02,22.414,6.78E+07
9926,78.321,0.72948,22.5,4.27E+07
9927,79.754,2.2937,22.5,4.26E+07
9928,79.662,-0.82661,20.971,6.53E+07
9929,81.009,1.2267,21.159,5.93E+07
9930,76.345,-5.6822,22.5,7.10E+07
9931,80.413,-1.8446,22.414,7.04E+07
9932,77.461,-5.0351,22.423,7.50E+07
9933,76.688,-1.0525,22.5,4.51E+07
9934,75.297,-3.0356,22.5,4.80E+07
9935,78.029,-2.6086,20.971,6.79E+07
9936,76.781,-4.0707,20.973,7.00E+07
9937,73.079,-9.2461,22.5,7.15E+07
9938,75.829,-6.8171,22.423,7.62E+07
9939,74.134,-8.6207,22.435,7.67E+07
9940,71.923,-6.4826,22.5,4.85E+07
9941,73.664,-4.8175,22.5,4.90E+07
9942,74.158,-7.3207,21.485,7.23E+07
9943,75.148,-5.8527,20.973,7.11E+07
9944,70.599,-12.31,22.47,7.22E+07
9945,72.501,-10.403,22.435,7.61E+07
9946,68.372,-9.8789,22.5,4.82E+07
9947,70.29,-8.2646,22.5,4.78E+07
9948,70.077,-11.695,21.173,7.08E+07
9949,72.525,-9.1026,21.485,7.16E+07
9950,71.316,-10.658,21.354,7.33E+07
9951,68.862,-15.216,21.883,7.31E+07
9952,70.568,-13.467,21.5,8.18E+07
9953,67.164,-17.03,21.5,6.98E+07
9954,68.918,-15.268,19.5,8.29E+07
9955,68.15,-15.869,22.018,6.97E+07
9956,69.42,-14.508,22.016,7.45E+07
9957,68.813,-13.815,20.673,7.32E+07
9958,67.174,-15.336,20.898,6.99E+07
9959,67.961,-15.685,22.306,6.71E+07
9960,69.226,-14.331,22.304,7.20E+07
9961,68.705,-13.716,21.026,7.07E+07
9962,67.066,-15.238,21.251,6.75E+07
9963,73.869,-9.865,21.5,8.82E+07
9964,70.568,-13.467,19.5,8.91E+07
9965,71.07,-12.707,22.016,8.07E+07
9966,72.929,-10.76,21.91,8.46E+07
9967,72.906,-10.916,18.833,9.93E+07
9968,70.463,-12.014,20.673,7.93E+07
9969,71.702,-10.977,20.854,8.19E+07
9970,77.169,-6.2633,21.5,8.59E+07
9971,76.261,-7.1437,21.88,8.42E+07
9972,74.579,-8.9593,21.91,8.48E+07
9973,76.438,-7.0607,18.483,9.97E+07
9974,74.556,-9.1147,18.833,9.95E+07
9975,74.561,-7.6207,20.985,8.03E+07
9976,75.552,-6.1527,20.473,7.91E+07
9977,73.352,-9.1761,20.854,8.20E+07
9978,80.469,-2.6615,21.5,8.04E+07
9979,80.854,-2.1439,21.859,7.72E+07
9980,77.911,-5.3428,21.88,8.19E+07
9981,78.089,-5.2598,18.483,9.74E+07
9982,79.919,-3.2618,18.833,9.19E+07
9983,78.449,-2.8897,20.471,7.46E+07
9984,77.202,-4.3518,20.473,7.68E+07
9985,83.77,0.94028,21.5,7.38E+07
9986,82.504,-0.34302,21.859,7.41E+07
9987,83.22,0.33999,18.833,8.44E+07
9988,81.57,-1.4609,18.833,8.87E+07
9989,80.1,-1.0888,20.471,7.15E+07
9990,81.447,0.96451,20.659,6.53E+07
9991,87.07,4.5421,21.5,6.69E+07
9992,87.427,5.0211,21.844,6.45E+07
9993,84.154,1.4579,21.859,7.06E+07
9994,84.87,2.1409,18.833,8.09E+07
9995,86.52,3.9418,18.833,7.66E+07
9996,83.097,2.7654,20.659,6.19E+07
9997,85.153,4.5876,20.921,6.05E+07
9998,90.371,8.1438,21.5,6.00E+07
9999,89.077,6.8219,21.844,6.10E+07
10000,89.821,7.5435,18.833,6.89E+07
10001,88.17,5.7426,18.833,7.31E+07
10002,88.637,7.898,21.022,5.65E+07
10003,86.804,6.3885,20.921,5.70E+07
10004,93.671,11.746,21.5,5.29E+07
10005,90.727,8.6228,21.844,5.76E+07
10006,92.294,10.353,21.879,5.43E+07
10007,91.471,9.3444,18.833,6.55E+07
10008,93.121,11.145,18.833,6.16E+07
10009,90.288,9.6989,21.022,5.31E+07
10010,91.897,11.071,20.958,5.23E+07
10011,96.972,15.347,21.5,4.47E+07
10012,95.428,13.755,21.846,4.80E+07
10013,93.945,12.154,21.879,5.06E+07
10014,96.421,14.747,18.833,5.49E+07
10015,94.771,12.946,18.833,5.79E+07
10016,94.783,15.741,20.941,4.03E+07
10017,93.944,14.362,20.947,4.33E+07
10018,93.547,12.871,20.958,4.87E+07
10019,98.3,19.622,21.5,3.20E+07
10020,97.079,15.555,21.846,4.35E+07
10021,98.072,16.548,18.833,5.03E+07
10022,99.388,17.985,19.618,4.63E+07
10023,96.433,17.542,20.941,3.57E+07
10024,99.187,18.445,21.046,3.90E+07
10025,97.649,17.669,21.487,3.60E+07
10026,46.8,-24.383,22.424,1.16E+08
10027,49.201,-23.9,22.5,9.62E+07
10028,45.218,-24,22.5,1.45E+08
10029,45.218,-24.383,22.424,1.46E+08
10030,45.264,-21.569,22.5,1.14E+08
10031,47.66,-24.393,22.414,1.06E+08
10032,48.197,-22.165,22.5,9.66E+07
10033,46.427,-24.034,22.056,1.24E+08
10034,47.951,-23.469,21.682,1.05E+08
10035,46.8,-24.924,21.883,1.18E+08
10036,49.284,-24.897,21.5,9.97E+07
10037,45.218,-25,21.5,1.48E+08
10038,46.8,-25,19.423,1.19E+08
10039,47.664,-24.925,21.849,1.08E+08
10040,46.427,-24.534,21.556,1.27E+08
10041,47.951,-23.969,21.182,1.07E+08
10042,45.218,-24.924,21.883,1.46E+08
10043,45.218,-24.707,22.207,1.48E+08
10044,47.658,-24.72,22.181,1.07E+08
10045,46.427,-24.387,21.909,1.25E+08
10046,47.951,-23.823,21.536,1.06E+08
10047,54.184,-24.077,21.5,7.48E+07
10048,49.284,-24.897,19.423,9.99E+07
10049,50.139,-24.75,21.849,8.92E+07
10050,52.819,-24.309,21.89,7.66E+07
10051,52.903,-24.373,19.592,8.18E+07
10052,53.521,-22.657,20.429,7.64E+07
10053,51.535,-22.902,20.451,8.29E+07
10054,50.426,-23.764,21.182,8.89E+07
10055,58.882,-22.459,21.5,6.66E+07
10056,57.574,-22.913,21.89,6.67E+07
10057,55.237,-23.705,21.895,7.07E+07
10058,55.314,-23.766,19.592,7.59E+07
10059,57.393,-23.067,18.76,7.46E+07
10060,58.11,-21.361,20.438,6.81E+07
10061,55.928,-22.045,20.429,7.14E+07
10062,63.248,-20.089,21.5,6.43E+07
10063,62.033,-20.752,21.89,6.28E+07
10064,59.859,-21.918,21.895,6.40E+07
10065,59.681,-22.094,18.76,7.19E+07
10066,61.751,-21.009,19.428,7.02E+07
10067,60.384,-20.361,20.438,6.61E+07
10068,67.164,-17.03,19.5,7.71E+07
10069,66.331,-17.567,22.035,6.43E+07
10070,64.122,-19.394,21.895,6.28E+07
10071,63.853,-19.681,19.428,7.00E+07
10072,65.192,-18.701,18.539,7.39E+07
10073,62.461,-18.999,20.438,6.51E+07
10074,65.349,-17.023,20.898,6.52E+07
10075,64.267,-17.954,20.853,6.45E+07
10076,62.7,-19.252,22.5,5.91E+07
10077,65.944,-17.099,22.471,6.16E+07
10078,63.776,-18.946,22.435,6.04E+07
10079,62.279,-16.559,22.5,5.25E+07
10080,63.412,-15.124,22.5,4.89E+07
10081,65.042,-16.629,21.398,6.26E+07
10082,63.959,-17.56,21.353,6.20E+07
10083,58.479,-21.544,22.5,6.18E+07
10084,61.766,-20.264,22.431,6.01E+07
10085,59.591,-21.42,22.435,6.16E+07
10086,60.271,-17.876,22.5,5.31E+07
10087,58.979,-19.048,22.5,5.63E+07
10088,60.145,-19.921,20.938,6.35E+07
10089,57.964,-20.605,20.929,6.56E+07
10090,61.951,-18.877,21.353,6.15E+07
10091,53.938,-23.108,22.5,7.13E+07
10092,57.391,-22.388,22.431,6.43E+07
10093,55.055,-23.169,22.435,6.86E+07
10094,54.314,-19.54,22.5,5.96E+07
10095,52.917,-21.375,22.5,7.22E+07
10096,56.781,-20.015,22.5,5.93E+07
10097,55.766,-21.572,20.929,6.90E+07
10098,53.78,-21.818,20.951,7.46E+07
10099,50.081,-24.232,22.409,8.77E+07
10100,52.725,-23.76,22.431,7.51E+07
10101,50.59,-21.966,22.5,7.91E+07
10102,51.452,-22.409,20.951,8.11E+07
10103,50.344,-23.27,21.682,8.72E+07
10104,43.636,-24.383,22.424,1.76E+08
10105,42.001,-24.002,22.545,2.28E+08
10106,43.693,-21.569,22.5,1.44E+08
10107,42.594,-23.2,21.06,1.74E+08
10108,44.845,-24.034,22.056,1.54E+08
10109,43.636,-24.924,21.883,1.77E+08
10110,42.013,-24.678,22.278,2.29E+08
10111,41.946,-25,21.546,2.21E+08
10112,45.218,-25,19.423,1.47E+08
10113,41.967,-24.922,21.927,2.31E+08
10114,43.178,-25,19.67,1.71E+08
10115,42.594,-23.7,20.56,1.75E+08
10116,44.845,-24.534,21.556,1.54E+08
10117,41.996,-24.384,22.468,2.30E+08
10118,42.594,-23.554,20.914,1.75E+08
10119,44.845,-24.387,21.909,1.56E+08
10120,38.75,-24.005,22.9,3.57E+08
10121,37.127,-24.387,23.134,4.41E+08
10122,35.249,-24.173,23.694,4.81E+08
10123,36.345,-24.425,23.313,4.91E+08
10124,38.388,-22.353,22.972,3.25E+08
10125,36.243,-22.442,23.437,3.60E+08
10126,38.737,-24.386,22.823,3.54E+08
10127,35.69,-23.774,22.473,3.83E+08
10128,37.347,-23.72,22.344,3.78E+08
10129,40.316,-24.502,22.181,2.74E+08
10130,42.057,-21.584,22.545,1.98E+08
10131,40.007,-22.34,22.727,2.46E+08
10132,40.362,-24.385,22.601,2.83E+08
10133,40.961,-23.202,21.149,2.31E+08
10134,38.96,-23.718,22.079,2.98E+08
10135,37.01,-24.924,22.606,4.66E+08
10136,38.587,-25,21.914,3.73E+08
10137,35.108,-25.146,22.883,5.36E+08
10138,37.975,-25,20.394,4.04E+08
10139,36.257,-24.942,22.809,5.10E+08
10140,35.223,-25.488,20.887,4.57E+08
10141,35.582,-24.271,21.985,3.91E+08
10142,37.239,-24.217,21.856,3.96E+08
10143,38.649,-24.923,22.289,3.58E+08
10144,36.316,-24.732,23.108,4.96E+08
10145,38.702,-24.708,22.609,3.66E+08
10146,37.315,-24.071,22.2,3.82E+08
10147,39.596,-25,20.095,2.95E+08
10148,40.303,-24.922,22.063,2.76E+08
10149,41.491,-25,19.763,2.18E+08
10150,40.907,-23.7,20.652,2.21E+08
10151,38.906,-24.217,21.581,2.87E+08
10152,25.613,-28.821,28.37,3.14E+08
10153,25.655,-29.007,28.309,3.28E+08
10154,26.074,-29.832,27.79,3.33E+08
10155,24.355,-27.416,29.405,2.90E+08
10156,23.611,-29.832,29.911,2.82E+08
10157,23.634,-27.416,29.988,2.98E+08
10158,23.307,-32.008,30.048,2.46E+08
10159,25.302,-31.798,28.4,2.62E+08
10160,22.63,-30.668,28.481,2.42E+08
10161,23.809,-28.651,27.779,2.73E+08
10162,24.346,-30.813,27.244,2.59E+08
10163,31.696,-25.242,24.959,5.31E+08
10164,33.452,-25.139,24.055,5.96E+08
10165,34.517,-24.664,23.847,5.37E+08
10166,32.049,-22.663,24.841,4.16E+08
10167,34.386,-22.749,23.972,4.32E+08
10168,33.832,-24.075,23.009,4.55E+08
10169,32.211,-23.69,23.661,4.18E+08
10170,28.5,-26.89,26.535,4.42E+08
10171,30.118,-26.389,25.587,5.54E+08
10172,31.762,-25.703,24.792,5.73E+08
10173,30.38,-23.385,25.593,4.14E+08
10174,28.566,-24.575,26.546,4.09E+08
10175,28.204,-26.426,25.019,4.23E+08
10176,30.169,-25.977,24.077,4.63E+08
10177,30.525,-24.393,24.377,4.09E+08
10178,27.066,-28.021,27.364,3.86E+08
10179,28.554,-27.173,26.446,4.75E+08
10180,25.703,-26.412,28.383,3.21E+08
10181,27.079,-25.496,27.446,3.43E+08
10182,26.687,-27.335,25.873,3.43E+08
10183,25.187,-27.652,26.799,3.31E+08
10184,28.562,-27.425,26.289,4.86E+08
10185,27.386,-29.003,26.639,4.00E+08
10186,26.718,-27.518,25.801,3.53E+08
10187,25.218,-27.835,26.727,3.40E+08
10188,31.691,-26.056,24.458,5.99E+08
10189,28.742,-28.164,25.545,4.85E+08
10190,30.273,-28.169,23.708,5.39E+08
10191,28.223,-26.769,24.836,4.53E+08
10192,30.188,-26.32,23.894,4.94E+08
10193,31.62,-27.294,22.658,5.16E+08
10194,34.448,-25.158,23.446,5.83E+08
10195,33.605,-26.098,21.655,5.95E+08
10196,33.798,-24.531,22.683,4.99E+08
10197,31.821,-25.73,23.036,5.12E+08
10198,32.177,-24.146,23.336,4.61E+08
10199,29.37,-29.832,24.281,4.64E+08
10200,27.046,-31.799,26.744,3.17E+08
10201,28.571,-31.467,25.128,3.47E+08
10202,25.766,-29.224,23.764,2.84E+08
10203,28.069,-30.585,23.255,3.25E+08
10204,27.065,-28.334,25.206,3.53E+08
10205,25.565,-28.651,26.132,3.39E+08
10206,26.102,-30.813,25.597,3.31E+08
10207,32.198,-29.832,20.383,4.97E+08
10208,31.139,-32.781,21.774,3.97E+08
10209,30.101,-31.467,23.273,4.11E+08
10210,32.177,-28.253,20.993,5.32E+08
10211,30.658,-27.503,20.957,3.69E+08
10212,29.603,-30.585,21.4,3.82E+08
10213,28.599,-28.334,23.351,3.99E+08
10214,30.564,-27.885,22.409,4.49E+08
10215,34.511,-29.832,16.161,4.40E+08
10216,32.456,-32.781,19.758,3.67E+08
10217,33.663,-32.782,17.623,3.72E+08
10218,34.571,-27.983,17.01,4.45E+08
10219,33.439,-28.253,18.918,4.92E+08
10220,30.053,-29.224,17.985,2.47E+08
10221,31.22,-29.224,15.898,2.31E+08
10222,33.338,-28.112,16.021,3.23E+08
10223,32.637,-31.151,16.952,3.35E+08
10224,31.946,-27.503,18.923,3.36E+08
10225,30.89,-30.585,19.366,3.47E+08
10226,36.273,-29.832,11.68,3.92E+08
10227,35.618,-32.782,13.234,3.49E+08
10228,34.711,-32.782,15.457,3.53E+08
10229,35.563,-27.972,14.838,4.08E+08
10230,36.017,-28.315,13.307,4.18E+08
10231,32.241,-29.224,13.717,2.03E+08
10232,33.084,-29.224,11.48,2.10E+08
10233,34.359,-28.112,13.841,3.02E+08
10234,33.658,-31.151,14.772,3.10E+08
10235,34.381,-31.294,12.092,2.76E+08
10236,37.456,-29.832,7.0129,3.40E+08
10237,36.385,-32.782,10.95,3.23E+08
10238,37.075,-31.834,8.4886,3.16E+08
10239,37.475,-27.989,8.9405,3.28E+08
10240,36.774,-28.324,11.035,3.84E+08
10241,33.822,-29.224,9.188,1.83E+08
10242,36.495,-27.562,7.0278,2.56E+08
10243,35.799,-27.683,9.3606,2.62E+08
10244,35.097,-28.112,11.55,2.75E+08
10245,35.119,-31.294,9.8008,2.48E+08
10246,35.751,-30.312,7.71,2.56E+08
10247,38.042,-29.832,2.2338,2.78E+08
10248,37.539,-31.835,6.1211,2.95E+08
10249,37.806,-32.02,4.0974,2.76E+08
10250,38.275,-28.071,4.0753,2.60E+08
10251,37.95,-28.006,6.6001,2.96E+08
10252,36.938,-27.562,4.6615,2.34E+08
10253,36.194,-30.312,5.3437,2.33E+08
10254,36.621,-29.413,3.0667,2.31E+08
10255,38.02,-29.832,-2.5809,2.21E+08
10256,37.993,-31.884,-1.7379,2.12E+08
10257,37.99,-32.02,1.6859,2.41E+08
10258,38.449,-28.086,1.6746,2.16E+08
10259,38.407,-28.271,-0.6783,2.05E+08
10260,36.641,-32.291,7.11E-02,1.70E+08
10261,36.497,-28.506,-1.8716,1.83E+08
10262,36.763,-29.413,0.66343,1.94E+08
10263,36.418,-30.435,-1.0983,1.75E+08
10264,37.391,-29.832,-7.3544,1.78E+08
10265,38.594,-27.291,-4.8879,1.14E+08
10266,37.91,-28.165,-6.4423,1.45E+08
10267,37.497,-32.58,-6.1931,1.74E+08
10268,37.806,-31.884,-4.1458,1.93E+08
10269,38.287,-28.271,-3.1033,1.84E+08
10270,36.155,-28.049,-6.9625,1.63E+08
10271,37.941,-27.191,-4.8601,1.74E+08
10272,36.334,-28.506,-4.2734,1.61E+08
10273,36.255,-30.435,-3.5001,1.54E+08
10274,36.198,-30.953,-5.7267,1.50E+08
10275,37.438,-28.161,-8.7868,1.29E+08
10276,36.767,-29,-10.384,1.50E+08
10277,37.031,-32.58,-8.5497,1.60E+08
10278,36.477,-31.974,-10.756,1.50E+08
10279,34.97,-30.182,-10.261,1.26E+08
10280,35.69,-28.049,-9.3246,1.43E+08
10281,35.734,-30.953,-8.0888,1.28E+08
10282,41.767,-25.144,-3.468,1.00E+08
10283,43.101,-25,-0.52812,1.07E+08
10284,43.28,-24.94,-2.3,1.38E+08
10285,44.876,-25,-0.58503,1.27E+08
10286,42.739,-24.942,-2.8619,1.36E+08
10287,40.903,-25.496,-1.5985,8.03E+07
10288,44.019,-24.623,-1.0583,1.21E+08
10289,41.774,-23.848,-1.1923,8.28E+07
10290,41.997,-24.406,-2.8258,1.11E+08
10291,43.276,-24.741,-2.1772,1.32E+08
10292,39.521,-26.063,-6.4609,8.11E+07
10293,40.344,-25.389,-5.9459,8.50E+07
10294,41.454,-25.157,-4.2742,1.05E+08
10295,39.85,-26.108,-3.0356,1.03E+08
10296,39.344,-25.034,-4.8451,9.62E+07
10297,40.762,-24.665,-4.2792,8.95E+07
10298,37.631,-27.418,-9.5381,1.17E+08
10299,39.228,-26.003,-7.3951,8.98E+07
10300,36.53,-26.482,-8.469,1.08E+08
10301,38.316,-25.623,-6.3666,1.22E+08
10302,37.789,-25.438,-7.543,1.24E+08
10303,34.564,-27.327,-12.117,1.21E+08
10304,34.946,-29.363,-10.96,1.12E+08
10305,35.666,-27.23,-10.024,1.29E+08
10306,42.945,-25,3.701,9.00E+07
10307,44.946,-25,0.85768,1.02E+08
10308,44.946,-25,2.9347,8.45E+07
10309,44.582,-22.852,-3.80E-03,8.97E+07
10310,41.046,-25.416,2.2633,1.12E+08
10311,40.92,-25.502,-0.1094,8.85E+07
10312,44.038,-24.623,0.45479,9.58E+07
10313,44.324,-23.329,2.3178,7.56E+07
10314,41.792,-23.848,0.32075,6.66E+07
10315,41.674,-23.227,2.2234,5.89E+07
10316,43.294,-24.741,-0.66415,1.04E+08
10317,42.261,-25,8.4869,1.55E+08
10318,44.713,-25,5.6431,9.69E+07
10319,44.713,-25,7.7201,1.05E+08
10320,40.815,-25.413,4.9568,1.50E+08
10321,40.498,-25.382,7.509,2.07E+08
10322,44.091,-23.329,5.0262,8.76E+07
10323,40.785,-23.545,7.1823,1.05E+08
10324,43.541,-22.603,6.999,9.42E+07
10325,41.44,-23.227,4.9318,8.24E+07
10326,41.225,-25,12.59,2.15E+08
10327,44.296,-25,9.7946,1.37E+08
10328,44.296,-25,11.872,1.47E+08
10329,40.082,-25.373,9.5762,2.33E+08
10330,39.174,-25.53,11.629,2.85E+08
10331,42.175,-23.074,11.365,1.48E+08
10332,39.677,-24.231,11.667,1.79E+08
10333,40.368,-23.545,9.2569,1.34E+08
10334,43.124,-22.603,9.0736,1.25E+08
10335,39.791,-25,16.572,2.83E+08
10336,43.678,-25,13.895,1.73E+08
10337,38.287,-25.373,15.239,3.30E+08
10338,38.554,-25.516,13.632,3.04E+08
10339,41.639,-25,16.22,2.06E+08
10340,41.557,-23.074,13.389,1.73E+08
10341,41.055,-23.7,17.11,2.12E+08
10342,39.059,-24.231,13.691,2.02E+08
10343,42.552,-23.065,15.215,1.79E+08
10344,38.711,-23.499,16.274,2.08E+08
10345,40.319,-22.644,15.056,1.77E+08
10346,37.475,-25.365,17.186,3.59E+08
10347,36.214,-25.502,19.053,4.03E+08
10348,40.826,-25,18.173,2.49E+08
10349,40.241,-23.7,19.063,2.55E+08
10350,36.583,-24.271,20.121,3.25E+08
10351,37.897,-23.499,18.227,2.43E+08
10352,38.24,-24.217,19.992,3.23E+08
10353,43.373,-2.1246,22.5,1.76E+08
10354,41.298,7.55E-02,22.564,2.47E+08
10355,45.298,0.71645,22.5,2.20E+08
10356,41.302,7.58E-02,20.47,2.20E+08
10357,43.896,0.41577,19.556,2.19E+08
10358,44.855,-1.2457,20.317,1.77E+08
10359,42.048,-1.2163,20.75,1.95E+08
10360,43.743,-16.707,22.5,7.98E+07
10361,41.14,-17.592,22.614,1.10E+08
10362,41.677,-19.917,22.57,1.70E+08
10363,46.661,-19.734,22.5,9.90E+07
10364,45.437,-17.978,22.5,9.18E+07
10365,42.64,-20.769,21.06,1.49E+08
10366,45.276,-18.95,20.488,1.05E+08
10367,44.891,-21.603,22.056,1.24E+08
10368,42.807,-18.252,20.561,1.03E+08
10369,43.706,-11.844,22.5,1.81E+07
10370,41.14,-15.184,22.614,7.88E+07
10371,41.258,-12.448,22.602,3.85E+07
10372,45.715,-13.275,22.5,2.98E+07
10373,45.441,-15.547,22.5,5.26E+07
10374,45.136,-14.312,20.673,4.77E+07
10375,42.244,-13.226,20.49,4.31E+07
10376,42.81,-15.82,20.561,7.05E+07
10377,43.583,-6.9829,22.5,7.83E+07
10378,41.214,-10.039,22.602,5.25E+07
10379,41.802,-7.2261,22.554,9.51E+07
10380,45.675,-10.844,22.5,2.07E+07
10381,45.422,-8.4443,22.5,4.49E+07
10382,42.866,-7.8234,20.418,6.61E+07
10383,45.096,-11.881,20.673,2.67E+07
10384,42.204,-10.795,20.49,4.55E+07
10385,40.65,-8.5265,21.103,7.59E+07
10386,44.717,-9.0511,20.294,4.26E+07
10387,41.426,-2.2619,22.564,1.86E+08
10388,45.403,-1.6257,22.5,1.61E+08
10389,41.712,-4.8123,22.554,1.32E+08
10390,46.49,-4.413,22.5,9.71E+07
10391,45.339,-6.0143,22.5,8.24E+07
10392,42.782,-5.3935,20.418,1.02E+08
10393,44.982,-3.6738,20.317,1.17E+08
10394,42.174,-3.6444,20.75,1.34E+08
10395,44.634,-6.6211,20.294,7.71E+07
10396,37.285,3.17E-11,23.1,2.87E+08
10397,39.356,2.91E-11,20.597,2.37E+08
10398,37.873,-2.6186,23.014,2.27E+08
10399,39.661,-2.5347,22.734,2.06E+08
10400,37.572,2.78E-11,20.571,2.32E+08
10401,36.969,-1.811,21.505,2.27E+08
10402,40.108,-1.3677,20.877,2.10E+08
10403,25.805,1.83E-11,28.073,7.13E+08
10404,24.233,-2.0817,29.374,7.61E+08
10405,23.535,0,29.834,8.34E+08
10406,23.558,-2.0821,29.918,8.05E+08
10407,24.123,8.86E-12,27.369,6.59E+08
10408,22.211,7.44E-12,29.164,7.23E+08
10409,22.827,-1.7388,28.787,6.85E+08
10410,29.387,2.17E-11,25.884,5.29E+08
10411,25.903,-2.0969,28.093,6.70E+08
10412,27.658,-2.1115,26.931,5.83E+08
10413,28.315,2.11E-11,24.052,4.79E+08
10414,25.834,1.93E-11,26.153,5.67E+08
10415,27.841,-1.4455,25.183,5.01E+08
10416,33.238,2.51E-11,24.215,3.74E+08
10417,29.489,-2.127,25.896,4.83E+08
10418,31.626,-2.4414,24.896,3.78E+08
10419,31.752,2.34E-11,21.66,3.36E+08
10420,30.177,2.23E-11,23.085,3.76E+08
10421,32.933,-1.811,22.619,3.22E+08
10422,29.703,-1.4455,24.216,3.98E+08
10423,35.819,-2.5994,23.472,2.56E+08
10424,33.591,-2.4646,24.142,3.17E+08
10425,33.732,2.41E-11,20.963,2.70E+08
10426,35.515,2.54E-11,20.988,2.66E+08
10427,34.912,-1.811,21.922,2.60E+08
10428,24.474,-22.917,29.435,3.05E+08
10429,23.709,-25,30.004,3.05E+08
10430,23.721,-22.917,30.045,3.26E+08
10431,25.749,-24.08,28.409,2.95E+08
10432,23.205,-23.559,28.557,2.60E+08
10433,23.889,-26.235,27.799,2.80E+08
10434,24.386,-6.2467,29.413,6.60E+08
10435,23.66,-6.2474,29.999,7.02E+08
10436,23.643,-4.1645,29.938,7.73E+08
10437,25.988,-4.1956,28.109,6.32E+08
10438,24.213,-2.082,27.392,6.16E+08
10439,22.916,-3.8208,28.81,6.48E+08
10440,23.816,-5.2626,27.818,5.75E+08
10441,24.486,-10.413,29.438,5.35E+08
10442,23.731,-10.414,30.05,5.76E+08
10443,23.72,-8.3308,30.012,6.41E+08
10444,26.06,-6.2917,28.123,5.65E+08
10445,26.531,-8.9874,27.855,4.73E+08
10446,22.524,-9.5593,28.941,4.67E+08
10447,24.559,-9.3643,27.572,4.51E+08
10448,23.879,-7.3455,27.835,5.09E+08
10449,24.534,-14.581,29.451,4.26E+08
10450,23.77,-14.581,30.07,4.64E+08
10451,23.764,-12.497,30.056,5.16E+08
10452,26.602,-13.792,27.87,3.45E+08
10453,26.57,-11.088,27.864,4.13E+08
10454,22.561,-11.643,28.95,4.08E+08
10455,23.338,-13.666,28.412,3.55E+08
10456,24.596,-11.448,27.582,3.90E+08
10457,24.928,-13.677,27.712,3.52E+08
10458,24.53,-18.749,29.45,3.44E+08
10459,23.777,-16.665,30.069,4.15E+08
10460,26.611,-15.893,27.872,3.05E+08
10461,25.727,-17.92,28.508,3.16E+08
10462,23.349,-15.75,28.414,3.11E+08
10463,23.977,-17.615,28.112,2.88E+08
10464,24.939,-15.761,27.715,3.07E+08
10465,23.759,-20.833,30.052,3.40E+08
10466,23.766,-18.749,30.069,3.75E+08
10467,25.79,-21.986,28.419,2.94E+08
10468,25.712,-20.014,28.504,2.93E+08
10469,23.245,-21.475,28.567,2.61E+08
10470,23.962,-19.699,28.109,2.64E+08
10471,24.994,-21.243,26.976,2.47E+08
10472,85.168,34.816,22.5,1.71E+07
10473,82.643,35.235,22.5,3.42E+07
10474,84.3,37.043,22,3.51E+07
10475,85.046,35.096,22,2.86E+07
10476,94.353,24.053,22.5,1.62E+07
10477,97.191,22.458,22,2.03E+07
10478,95.349,23.437,22,1.88E+07
10479,94.387,20.948,22.5,1.79E+07
10480,95.375,21.946,21.69,1.84E+07
10481,90.62,27.03,22.5,1.94E+07
10482,93.348,24.744,22,1.98E+07
10483,91.711,26.035,22,2.32E+07
10484,92.387,22.251,22.5,1.83E+07
10485,90.587,23.564,22.5,2.07E+07
10486,87.52,30.662,22.5,2.14E+07
10487,89.974,27.677,22,2.51E+07
10488,88.593,29.24,22,2.96E+07
10489,86.823,25.941,22.5,2.68E+07
10490,86.369,28.556,22.5,2.93E+07
10491,88.871,25.224,22.5,2.20E+07
10492,87.563,27.604,20.557,2.47E+07
10493,89.377,26.723,21.099,2.08E+07
10494,83.615,33.055,22.5,3.57E+07
10495,87.177,31.165,22,2.85E+07
10496,86.096,32.949,22,3.25E+07
10497,85,30.512,22.5,2.86E+07
10498,85.136,31.808,21.094,3.05E+07
10499,59.445,9.9186,22.5,1.49E+08
10500,56.303,6.6208,22.5,1.75E+08
10501,57.788,8.1102,20.375,1.56E+08
10502,58.919,5.6337,22.5,1.27E+08
10503,60.475,7.4532,22.5,1.30E+08
10504,59.878,8.229,20.969,1.33E+08
10505,79.329,31.618,22.5,6.38E+07
10506,82.643,35.235,22,5.58E+07
10507,83.468,33.322,22,4.86E+07
10508,80.461,32.854,19.667,5.62E+07
10509,81.752,34.262,20.708,5.63E+07
10510,82.371,30.884,22.5,4.66E+07
10511,82.507,32.179,21.094,4.90E+07
10512,76.015,28.002,22.5,7.83E+07
10513,78.804,31.045,19.667,6.37E+07
10514,77.128,29.216,19.903,6.82E+07
10515,78.735,27.322,22.5,6.18E+07
10516,80.714,29.076,22.5,5.42E+07
10517,79.374,28.647,20.184,5.66E+07
10518,80.85,30.371,21.094,5.65E+07
10519,72.701,24.385,22.5,9.13E+07
10520,73.86,25.65,19.667,7.93E+07
10521,75.471,27.408,19.903,7.52E+07
10522,75.406,23.244,22.5,7.22E+07
10523,77.078,25.513,22.5,6.88E+07
10524,75.549,24.907,20.409,7.00E+07
10525,69.387,20.768,22.5,1.03E+08
10526,72.203,23.842,19.667,8.53E+07
10527,70.56,22.048,19.667,9.02E+07
10528,73.749,21.436,22.5,7.81E+07
10529,71.974,19.788,22.5,8.37E+07
10530,72.23,21.232,20.528,8.03E+07
10531,73.892,23.099,20.409,7.60E+07
10532,66.073,17.152,22.5,1.16E+08
10533,67.083,18.254,19.292,1.01E+08
10534,68.903,20.24,19.667,9.63E+07
10535,68.825,16.255,22.5,9.36E+07
10536,70.317,17.98,22.5,8.98E+07
10537,68.957,17.732,20.259,8.98E+07
10538,70.573,19.424,20.528,8.65E+07
10539,62.759,13.535,22.5,1.29E+08
10540,65.426,16.446,19.292,1.07E+08
10541,63.387,14.221,19.808,1.15E+08
10542,67.168,14.446,22.5,9.99E+07
10543,65.488,12.699,22.5,1.05E+08
10544,64.835,13.795,21.032,1.08E+08
10545,67.3,15.923,20.259,9.61E+07
10546,59.445,9.9186,20.375,1.43E+08
10547,61.73,12.412,19.808,1.22E+08
10548,60.39,10.95,19.381,1.28E+08
10549,62.132,9.2615,22.5,1.16E+08
10550,63.831,10.89,22.5,1.12E+08
10551,61.535,10.037,20.969,1.20E+08
10552,63.178,11.987,21.032,1.15E+08
10553,52.985,4.0417,22.5,1.91E+08
10554,56.303,6.6208,20.375,1.69E+08
10555,53.665,4.4999,19.923,1.84E+08
10556,55.502,2.0858,22.5,1.33E+08
10557,57.374,4.2093,22.5,1.42E+08
10558,55.22,3.5534,20.774,1.50E+08
10559,49.282,2.0549,22.5,2.00E+08
10560,51.891,3.3698,19.923,1.87E+08
10561,50.018,2.3876,20.365,1.96E+08
10562,53.741,0.94029,22.5,1.37E+08
10563,50.334,-0.65121,22.5,1.37E+08
10564,52.474,-1.0894,22.5,1.21E+08
10565,51.359,0.79305,20.211,1.48E+08
10566,53.459,2.4078,20.774,1.53E+08
10567,48.079,1.5714,20.365,2.02E+08
10568,45.947,0.88439,19.556,2.01E+08
10569,48.405,-1.4855,22.5,1.42E+08
10570,46.896,-0.74627,20.317,1.61E+08
10571,49.43,-4.12E-02,20.211,1.54E+08
10572,45.145,-24.907,-0.908,1.30E+08
10573,45.3,-24.697,-1.162,1.32E+08
10574,42.907,-24.768,-3.0725,1.39E+08
10575,44.23,-24.506,-1.3018,1.24E+08
10576,43.486,-24.624,-2.4207,1.35E+08
10577,46.998,-24.908,0.4144,1.25E+08
10578,48.896,-24.905,1.8728,1.17E+08
10579,46.8,-25,2.8071,1.03E+08
10580,46.435,-22.852,-0.13139,1.09E+08
10581,45.891,-24.623,0.3272,1.16E+08
10582,46.177,-23.329,2.1902,9.14E+07
10583,49.078,-24.78,1.541,1.19E+08
10584,46.987,-24.855,2.5095,1.04E+08
10585,46.623,-22.708,-0.42896,1.12E+08
10586,49.196,-24.606,1.2598,1.22E+08
10587,46.078,-24.479,2.96E-02,1.18E+08
10588,46.365,-23.184,1.8926,9.33E+07
10589,45.326,-24.507,-1.0617,1.26E+08
10590,63.919,-19.543,5.1173,1.23E+08
10591,61.95,-20.893,5.4393,1.19E+08
10592,65.289,-18.625,5.5,1.20E+08
10593,61.932,-20.818,5.0645,1.24E+08
10594,64.438,-19.267,8.0564,1.07E+08
10595,62.548,-20.534,7.8856,1.04E+08
10596,64.83,-18.222,5.6784,1.21E+08
10597,63.123,-19.583,5.5648,1.21E+08
10598,66.295,-17.27,4.6985,1.31E+08
10599,65.244,-18.554,5.0993,1.24E+08
10600,61.841,-20.629,4.7452,1.27E+08
10601,64.747,-18.102,5.3249,1.24E+08
10602,63.039,-19.463,5.2112,1.25E+08
10603,57.322,-23.095,4.8372,1.15E+08
10604,57.714,-22.87,4.5474,1.20E+08
10605,59.856,-21.93,4.8801,1.25E+08
10606,58.823,-22.485,7.8799,1.03E+08
10607,60.469,-21.705,7.7591,1.04E+08
10608,58.245,-20.585,6.275,1.10E+08
10609,61.065,-20.787,5.4383,1.21E+08
10610,58.158,-21.917,5.1712,1.17E+08
10611,52.889,-24.37,3.6073,1.13E+08
10612,53.04,-24.232,3.1978,1.16E+08
10613,55.178,-23.732,3.9517,1.19E+08
10614,53.237,-24.301,5.7873,1.01E+08
10615,56.279,-23.463,7.3585,9.81E+07
10616,52.932,-22.68,4.8072,1.04E+08
10617,55.609,-22.873,4.6499,1.14E+08
10618,53.757,-23.597,3.8339,1.14E+08
10619,48.925,-24.89,3.8891,1.00E+08
10620,51.174,-24.587,2.562,1.17E+08
10621,51.377,-24.649,5.1321,9.90E+07
10622,51.08,-23.064,4.1521,1.02E+08
10623,68.862,-15.216,5.1173,1.38E+08
10624,67.771,-16.453,5.5,1.29E+08
10625,70.568,-13.467,5.5,1.47E+08
10626,68.918,-15.268,7.5,1.28E+08
10627,69.415,-14.515,4.9864,1.43E+08
10628,67.308,-16.053,5.6784,1.29E+08
10629,67.378,-14.457,6.2798,1.28E+08
10630,69.105,-13.592,6.0641,1.33E+08
10631,67.706,-16.398,5.0993,1.29E+08
10632,69.222,-14.338,4.6971,1.43E+08
10633,67.2,-15.954,5.3249,1.30E+08
10634,67.27,-14.358,5.9262,1.28E+08
10635,68.997,-13.494,5.7106,1.33E+08
10636,67.771,-16.453,7.5,1.20E+08
10637,65.745,-18.261,8.0564,1.08E+08
10638,66.129,-17.206,5.6784,1.22E+08
10639,101.83,20.774,5.098,6.51E+07
10640,100.27,18.949,5.5,7.73E+07
10641,103.27,22.22,5.5,7.39E+07
10642,99.922,21.341,5.5,7.18E+07
10643,101.27,22.801,5.5,6.87E+07
10644,101.22,19.984,7.8333,7.27E+07
10645,102.95,21.875,8.0487,6.67E+07
10646,98.852,20.297,6.5925,6.84E+07
10647,101,21.956,7.3333,6.41E+07
10648,100.16,18.943,5.1049,6.38E+07
10649,99.755,21.399,5.137,5.92E+07
10650,99.122,18.102,4.8104,6.56E+07
10651,98.681,20.342,6.2295,5.49E+07
10652,96.972,15.347,5.5,8.19E+07
10653,97.685,16.218,5.1526,7.90E+07
10654,97.764,16.212,8.2857,7.55E+07
10655,99.57,18.183,7.8333,7.24E+07
10656,95.807,16.645,7.2898,6.99E+07
10657,97.202,18.496,6.5925,6.78E+07
10658,93.671,11.746,5.5,9.34E+07
10659,94.346,12.583,5.1359,9.10E+07
10660,96.035,14.417,5.1526,8.41E+07
10661,94.221,12.346,8.1667,8.49E+07
10662,96.114,14.411,8.2857,8.05E+07
10663,94.157,14.844,7.2898,7.49E+07
10664,93.906,13.764,6.1707,8.11E+07
10665,90.371,8.1438,5.5,1.06E+08
10666,91.055,8.9936,5.1328,1.03E+08
10667,92.695,10.782,5.1359,9.75E+07
10668,92.571,10.545,8.1667,9.13E+07
10669,90.921,8.7441,8.1667,9.62E+07
10670,90.655,11.274,6.7249,8.53E+07
10671,89.857,9.178,6.0255,9.63E+07
10672,92.256,11.963,6.1707,8.76E+07
10673,87.07,4.5421,5.5,1.18E+08
10674,87.764,5.4035,5.1301,1.16E+08
10675,89.405,7.1928,5.1328,1.10E+08
10676,87.62,5.1424,8.1667,1.08E+08
10677,89.271,6.9432,8.1667,1.02E+08
10678,88.206,7.3771,6.0255,1.02E+08
10679,86.661,5.8347,6.1303,1.06E+08
10680,83.77,0.94028,5.5,1.31E+08
10681,84.471,1.8111,5.1282,1.28E+08
10682,86.113,3.6026,5.1301,1.22E+08
10683,85.97,3.3415,8.1667,1.14E+08
10684,84.32,1.5406,8.1667,1.19E+08
10685,82.854,2.1302,6.4395,1.14E+08
10686,85.011,4.0339,6.1303,1.12E+08
10687,80.469,-2.6615,5.5,1.42E+08
10688,81.167,-1.794,5.1273,1.40E+08
10689,82.82,1.02E-02,5.1282,1.34E+08
10690,81.02,-2.0612,8.1667,1.30E+08
10691,82.67,-0.26031,8.1667,1.25E+08
10692,79.36,-1.2622,6.8671,1.20E+08
10693,81.204,0.32928,6.4395,1.20E+08
10694,77.169,-6.2633,5.5,1.52E+08
10695,77.796,-5.4755,5.133,1.51E+08
10696,79.516,-3.5949,5.1273,1.45E+08
10697,79.369,-3.8621,8.1667,1.36E+08
10698,78.077,-5.2729,7.8138,1.40E+08
10699,77.709,-3.0631,6.8671,1.26E+08
10700,77.667,-4.267,5.9993,1.37E+08
10701,73.869,-9.865,5.5,1.56E+08
10702,74.511,-9.0564,5.1256,1.57E+08
10703,76.146,-7.2764,5.133,1.55E+08
10704,75.099,-8.5222,8.2194,1.44E+08
10705,76.426,-7.0738,7.8138,1.44E+08
10706,74.309,-6.9138,6.6417,1.34E+08
10707,76.017,-6.0678,5.9993,1.41E+08
10708,70.568,-13.467,7.5,1.38E+08
10709,71.066,-12.714,4.9864,1.52E+08
10710,72.861,-10.857,5.1256,1.57E+08
10711,73.449,-10.323,8.2194,1.45E+08
10712,72.081,-11.816,8.8333,1.41E+08
10713,72.659,-8.7147,6.6417,1.35E+08
10714,70.755,-11.792,6.0641,1.43E+08
10715,71.556,-10.109,6.2666,1.39E+08
10716,-12.886,33.534,119.64,1.74E+06
10717,-13,34.662,121.93,2.04E+06
10718,-13,33.901,118.03,3.24E+06
10719,-13,36.926,118.78,6.11E+06
10720,-12.964,33.956,120.62,1.83E+06
10721,-11.779,34.696,118.82,3.18E+06
10722,-11.972,35.039,120.29,2.20E+06
10723,-12.074,32.729,119.75,1.53E+06
10724,-11.5,33.158,122.16,1.31E+06
10725,-11.5,32.428,118.34,3.27E+06
10726,-9.05,32.615,119.76,3.47E+06
10727,-12.294,33.016,120.75,1.38E+06
10728,-11.029,33.952,118.92,3.05E+06
10729,-11.222,34.296,120.39,1.83E+06
10730,-12.383,32.703,118.22,2.28E+06
10731,-12.074,32.542,118.33,2.69E+06
10732,-12.886,33.332,118.11,2.61E+06
10733,-12.725,33.419,120.69,1.20E+06
10734,-11.559,34.17,118.89,2.82E+06
10735,-11.752,34.514,120.36,1.68E+06
10736,-12.405,33.011,118.21,2.48E+06
10737,-11.5,58.102,112.02,6.27E+06
10738,-12.074,56.723,109.99,8.87E+06
10739,-11.5,56.323,109.2,1.28E+07
10740,-9.05,56.814,109.92,1.78E+07
10741,-12.328,57.322,111.12,6.79E+06
10742,-10.261,55.566,110.81,1.29E+07
10743,-11.5,35.492,126.48,3.43E+05
10744,-12.563,34.637,124.43,9.40E+05
10745,-9.05,33.158,122.16,2.71E+06
10746,-12.308,33.769,123.13,7.91E+05
10747,-12.038,35.093,125.78,4.88E+05
10748,-8.7338,34.872,125.64,7.24E+05
10749,-7.3446,33.929,124.04,1.54E+06
10750,-9.2571,35.584,122.95,1.56E+06
10751,-10.684,36.143,124.77,5.45E+05
10752,-11.222,35.052,122.72,1.34E+06
10753,-11.5,39.213,129.67,1.48E+05
10754,-12.568,37.882,128.22,4.62E+05
10755,-12.078,38.658,129.19,2.05E+05
10756,-12.012,36.709,127.67,4.76E+05
10757,-8.7338,36.445,127.54,5.57E+05
10758,-8.7552,38.628,129.31,1.68E+05
10759,-10.684,37.682,126.68,6.52E+05
10760,-10.634,39.621,127.61,5.49E+05
10761,-11.5,43.829,131.32,4.13E+05
10762,-12.577,42.309,130.51,2.04E+05
10763,-12.039,43.341,131.13,3.29E+05
10764,-12.046,40.848,130.37,39854
10765,-8.7552,40.805,130.46,1.29E+05
10766,-9.1975,42.945,131.15,2.80E+05
10767,-10.634,41.74,128.84,5.55E+05
10768,-10.308,43.8,129.35,6.77E+05
10769,-11.5,48.731,131.22,1.07E+06
10770,-12.191,48.866,131.02,1.22E+06
10771,-11.991,45.799,131.42,6.35E+05
10772,-9.1975,45.383,131.49,5.88E+05
10773,-9.2417,47.75,131.39,8.15E+05
10774,-10.308,46.219,129.74,9.00E+05
10775,-10.807,48.169,129.72,1.24E+06
10776,-11.5,53.273,129.37,1.88E+06
10777,-12.073,51.242,130.32,1.70E+06
10778,-9.2417,50.152,130.85,1.24E+06
10779,-9.1108,52.403,129.88,1.48E+06
10780,-10.807,50.57,129.23,1.59E+06
10781,-11.5,56.855,126.03,2.55E+06
10782,-11.99,55.508,127.47,2.64E+06
10783,-12.151,53.406,129.11,2.02E+06
10784,-9.1108,54.455,128.52,1.92E+06
10785,-9.0294,56.229,126.81,2.11E+06
10786,-10.074,53.935,126.4,2.46E+06
10787,-10.807,52.636,127.91,1.74E+06
10788,-10.644,55.683,125.03,2.91E+06
10789,-11.5,59.006,121.62,2.90E+06
10790,-12.108,58.293,123.26,3.57E+06
10791,-12.038,57.071,125.55,2.84E+06
10792,-9.0294,57.659,124.81,2.46E+06
10793,-8.9469,58.705,122.56,2.70E+06
10794,-10.644,57.141,123.05,3.29E+06
10795,-11.5,59.441,116.73,2.51E+06
10796,-11.927,59.425,118.58,3.74E+06
10797,-12.144,59.04,120.88,3.47E+06
10798,-8.9469,59.323,120.18,2.82E+06
10799,-9.0251,59.493,117.58,4.07E+06
10800,-10.578,57.676,118.9,3.82E+06
10801,-10.644,57.798,120.69,2.98E+06
10802,-8.5585,57.992,118.4,4.67E+06
10803,-10.454,58.061,117.34,4.39E+06
10804,-9.05,58.102,112.02,1.38E+07
10805,-12.32,58.423,113.37,4.15E+06
10806,-11.962,59.294,116.12,3.07E+06
10807,-9.0251,59.192,115.13,4.46E+06
10808,-10.261,56.653,113.01,9.75E+06
10809,-10.454,57.831,114.9,4.06E+06
10810,-12.886,56.073,110.47,8.84E+06
10811,-13,56.863,112.9,9.68E+06
10812,-12.766,55.703,109.52,9.77E+06
10813,-13,54.482,108.96,1.09E+07
10814,-12.532,56.007,109.47,1.08E+07
10815,-13,53.016,112.2,2.34E+07
10816,-12.963,56.562,111.63,8.27E+06
10817,-13,52.978,109.98,2.08E+07
10818,-11.406,54.225,109.23,1.57E+07
10819,-11.011,54.965,111.26,1.13E+07
10820,-12.056,55.167,112.77,9.65E+06
10821,-12.059,56.241,109.27,1.15E+07
10822,-12.724,57.02,111.36,6.82E+06
10823,-10.791,55.39,110.94,1.16E+07
10824,-13,57.993,117.6,6.98E+06
10825,-13,54.044,114.39,2.22E+07
10826,-13,54.959,116.6,9.34E+06
10827,-12.963,57.629,113.89,7.60E+06
10828,-12.857,58.558,116.57,6.58E+06
10829,-11.328,56.786,116.9,5.53E+06
10830,-12.056,56.195,114.96,8.62E+06
10831,-11.204,57.171,115.34,6.13E+06
10832,-13,57.176,122.37,4.40E+06
10833,-13,55.039,119.01,1.07E+07
10834,-12.839,58.636,119.01,4.88E+06
10835,-12.914,58.064,121.28,4.68E+06
10836,-11.328,56.866,119.32,4.80E+06
10837,-11.394,56.988,121.11,4.12E+06
10838,-13,54.542,126.43,3.19E+06
10839,-13,54.158,121.27,1.16E+07
10840,-13,53.242,123.48,4.18E+06
10841,-12.922,57.186,123.53,4.05E+06
10842,-12.868,55.928,125.79,3.48E+06
10843,-10.824,54.359,124.74,2.91E+06
10844,-11.394,56.107,123.36,3.87E+06
10845,-13,50.521,129.12,1.81E+06
10846,-13,51.544,125.2,5.02E+06
10847,-13,49.334,126.11,1.74E+06
10848,-12.885,54.221,127.52,2.76E+06
10849,-12.902,52.014,129,2.28E+06
10850,-10.824,52.66,126.46,2.77E+06
10851,-11.557,51.361,127.96,2.08E+06
10852,-13,45.766,130,7.25E+05
10853,-13,47.094,127.02,2.62E+06
10854,-12.917,49.766,129.91,1.46E+06
10855,-12.885,46.757,130.55,8.74E+05
10856,-11.058,47.172,128.89,1.09E+06
10857,-11.557,49.121,128.87,1.51E+06
10858,-13,41.048,128.93,1.83E+05
10859,-13,44.676,126.98,2.63E+06
10860,-13,42.467,126.06,2.82E+06
10861,-12.868,44.326,130.5,4.40E+05
10862,-12.899,41.815,129.82,1.22E+05
10863,-11.384,42.694,128.34,6.17E+05
10864,-11.058,44.754,128.84,8.10E+05
10865,-13,37.135,126.09,1.06E+06
10866,-13,40.264,125.06,3.05E+06
10867,-12.89,39.613,128.82,3.67E+05
10868,-12.878,37.596,127.38,6.27E+05
10869,-11.434,38.552,126.41,7.67E+05
10870,-11.384,40.491,127.34,6.31E+05
10871,-13,37.719,121.07,5.81E+06
10872,-13,38.634,123.28,2.67E+06
10873,-12.975,34.749,122.9,1.44E+06
10874,-12.882,35.963,125.59,1.11E+06
10875,-11.434,36.923,124.62,9.87E+05
10876,-11.972,35.832,122.57,1.83E+06
10877,-11.851,32.272,116.83,3.92E+06
10878,-12.816,32.796,115.15,4.44E+06
10879,-12.78,32.927,116.64,3.35E+06
10880,-11.759,32.389,115.03,7.49E+06
10881,-12.217,32.677,116.73,3.60E+06
10882,-11.297,32.116,115.15,7.89E+06
10883,-10.699,32.011,115.17,6.93E+06
10884,-9.05,32.428,118.34,4.61E+06
10885,-8.5827,32.08,115.69,7.81E+06
10886,-11.029,33.765,117.49,4.06E+06
10887,-10.616,33.024,116.14,5.62E+06
10888,-11.875,32.606,116.81,3.93E+06
10889,-13,33.497,114.97,5.11E+06
10890,-13,34.342,111.19,1.03E+07
10891,-12.099,33.066,113.44,8.22E+06
10892,-13,35.367,113.47,1.14E+07
10893,-13,36.725,117.25,7.17E+06
10894,-12.195,33.088,114.91,7.15E+06
10895,-13,35.569,115,1.09E+07
10896,-11.779,34.494,117.28,4.21E+06
10897,-11.366,33.752,115.93,5.42E+06
10898,-12.625,33.335,116.61,3.81E+06
10899,-12.813,54.724,107.69,1.24E+07
10900,-11.874,55.802,108.35,1.37E+07
10901,-11.56,54.559,106.78,2.08E+07
10902,-11.019,54.232,107.98,1.80E+07
10903,-13,51.571,105.7,1.46E+07
10904,-11.788,53.497,106.28,2.22E+07
10905,-12.18,52.509,105.97,2.18E+07
10906,-13,52.032,108.04,2.25E+07
10907,-11.406,53.279,107.28,1.90E+07
10908,-10.38,55.298,106.97,2.26E+07
10909,-11.328,54.803,106.73,2.17E+07
10910,-9.05,56.323,109.2,2.02E+07
10911,-10.656,54.366,108.04,1.92E+07
10912,-10.261,55.107,110.07,1.53E+07
10913,-13,46.789,104.52,1.46E+07
10914,-12.193,50.221,105,2.31E+07
10915,-12.231,48.132,104.51,2.43E+07
10916,-13,49.789,107.02,2.35E+07
10917,-13,47.781,106.42,2.01E+07
10918,-11.996,48.834,105.76,2.10E+07
10919,-13,41.901,105.14,1.28E+07
10920,-12.239,45.693,104.35,2.37E+07
10921,-12.369,43.391,104.65,2.13E+07
10922,-13,42.977,107.03,1.74E+07
10923,-13,45.323,106.27,1.89E+07
10924,-11.43,44.064,105.52,1.62E+07
10925,-13,37.56,107.46,1.36E+07
10926,-12.369,40.999,105.35,2.00E+07
10927,-12.421,38.79,106.49,1.82E+07
10928,-13,40.63,107.78,1.73E+07
10929,-12.199,34.12,111.24,1.17E+07
10930,-12.421,36.81,107.99,1.91E+07
10931,-13,38.708,109.32,1.83E+07
10932,-13,36.609,111.34,1.53E+07
10933,-13,40.226,115.61,1.52E+07
10934,-13,40.226,120.39,7.63E+06
10935,-10.833,39.75,118,8.58E+06
10936,-11.314,40.188,120.3,7.36E+06
10937,-13,38.594,115.75,1.40E+07
10938,-11.779,37.519,118.03,7.56E+06
10939,-11.972,37.863,119.51,6.58E+06
10940,-13,43.608,112.23,3.10E+07
10941,-10.833,40.226,115.61,1.25E+07
10942,-10.254,42.985,112.53,1.67E+07
10943,-9.2773,41.361,113.81,9.97E+06
10944,-13,41.609,111.52,2.00E+07
10945,-13,39.509,113.54,1.80E+07
10946,-10.924,40.9,112.88,1.46E+07
10947,-9.8695,39.123,114.45,1.24E+07
10948,-13,48.392,112.23,4.37E+07
10949,-10.254,45.31,111.79,3.35E+07
10950,-10.254,47.74,112,3.75E+07
10951,-13,48.172,110.45,4.03E+07
10952,-13,43.818,110.6,3.36E+07
10953,-13,46.164,109.85,3.61E+07
10954,-11.229,46.792,110.49,3.86E+07
10955,-13,51.774,115.61,2.82E+07
10956,-10.254,49.904,113.12,3.46E+07
10957,-10.254,51.475,114.99,2.85E+07
10958,-13,50.381,111.36,3.66E+07
10959,-11.011,52.369,112.64,2.78E+07
10960,-12.056,52.571,114.15,2.65E+07
10961,-13,51.774,120.39,1.14E+07
10962,-10.254,52.212,117.31,1.78E+07
10963,-10.254,52.003,119.74,1.28E+07
10964,-11.328,54.077,118.3,1.20E+07
10965,-11.394,54.2,120.09,1.16E+07
10966,-12.056,53.486,116.36,1.43E+07
10967,-13,48.392,123.77,4.93E+06
10968,-10.254,49.015,123.47,5.60E+06
10969,-10.254,50.88,121.9,8.21E+06
10970,-10.824,51.536,123.68,5.53E+06
10971,-11.557,50.237,125.18,5.07E+06
10972,-11.394,53.284,122.3,4.19E+06
10973,-13,43.608,123.77,3.59E+06
10974,-11.314,43.516,123.73,3.19E+06
10975,-10.254,46.69,124.21,4.84E+06
10976,-11.384,44.018,125.61,2.83E+06
10977,-11.058,46.077,126.12,3.12E+06
10978,-11.557,48.027,126.1,2.58E+06
10979,-11.314,41.51,122.35,5.44E+06
10980,-11.434,39.869,123.77,3.35E+06
10981,-11.384,41.808,124.69,3.39E+06
10982,-11.972,38.778,121.72,3.42E+06
10983,-10.571,54.53,105.09,2.92E+07
10984,-9.5302,54.837,104.68,3.22E+07
10985,-8.1096,55.562,107.7,2.80E+07
10986,-7.2144,54.911,105.24,4.43E+07
10987,-9.7155,53.874,106.44,2.70E+07
10988,-9.1505,53.755,104.54,3.11E+07
10989,-11.018,53.448,104.71,3.16E+07
10990,-10.506,54.444,104.56,2.95E+07
10991,-10.872,53.981,104.65,2.75E+07
10992,-11.239,52.439,104.95,3.18E+07
10993,-10.44,53.229,106.37,2.86E+07
10994,-9.8749,53.11,104.47,3.00E+07
10995,-12.886,50.321,67.466,4.52E+07
10996,-13,50.357,65.233,3.87E+07
10997,-12.766,50.229,68.488,4.23E+07
10998,-12.532,50.534,68.45,4.34E+07
10999,-13,49.208,69.357,5.25E+07
11000,-13,47.696,70.89,5.75E+07
11001,-13,47.301,65.131,5.52E+07
11002,-13,46.385,67.341,7.28E+07
11003,-13,45.567,69.679,9.19E+07
11004,-10.984,46.617,68.462,6.26E+07
11005,-11.706,49.061,66.549,4.49E+07
11006,-11.546,48.968,69.377,5.24E+07
11007,-12.356,50.177,65.471,4.11E+07
11008,-12.074,51.08,67.754,4.88E+07
11009,-11.5,51.831,65.512,4.84E+07
11010,-11.5,50.913,68.623,4.84E+07
11011,-9.05,51.187,67.795,4.94E+07
11012,-10.956,49.762,66.815,4.82E+07
11013,-11.606,50.878,65.737,4.61E+07
11014,-12.163,51.686,65.445,4.46E+07
11015,-12.951,50.715,65.395,4.02E+07
11016,-12.059,50.814,68.576,4.44E+07
11017,-12.794,51.259,64.301,4.24E+07
11018,-11.487,49.557,66.737,4.48E+07
11019,-12.136,50.673,65.659,4.24E+07
11020,-11.5,43.202,50.321,1.65E+08
11021,-12.074,40.891,49.818,2.14E+08
11022,-12.25,42.754,51.165,1.79E+08
11023,-11.5,39.5,49.456,2.23E+08
11024,-9.3171,40.911,49.705,1.80E+08
11025,-11.237,41.033,51.22,2.07E+08
11026,-11.5,51.884,60.786,5.46E+07
11027,-9.05,51.831,65.512,4.55E+07
11028,-12.145,51.886,62.03,5.12E+07
11029,-8.7503,51.974,61.421,4.67E+07
11030,-7.5068,52.06,63.434,3.54E+07
11031,-10.956,50.202,64.493,4.37E+07
11032,-10.465,50.396,62.617,4.90E+07
11033,-11.606,51.318,63.416,4.68E+07
11034,-11.5,50.305,56.332,7.45E+07
11035,-12.561,50.877,58.636,6.30E+07
11036,-12.138,50.685,57.38,6.82E+07
11037,-12.146,51.496,59.659,5.74E+07
11038,-8.7503,51.491,59.098,5.43E+07
11039,-8.9797,50.686,57.051,6.42E+07
11040,-10.513,48.999,57.454,7.74E+07
11041,-10.465,50.009,60.286,5.14E+07
11042,-11.5,47.288,52.695,1.08E+08
11043,-12.561,48.619,54.661,9.31E+07
11044,-12.1,47.932,53.451,1.08E+08
11045,-12.131,49.485,55.299,8.18E+07
11046,-8.9797,49.457,55.022,7.84E+07
11047,-9.0314,47.885,53.231,9.14E+07
11048,-10.513,47.832,55.399,9.05E+07
11049,-12.13,43.162,50.543,1.76E+08
11050,-12.25,44.973,51.976,1.54E+08
11051,-9.3171,43.202,50.321,1.45E+08
11052,-12.071,46.069,51.96,1.32E+08
11053,-9.0314,46.031,51.751,1.15E+08
11054,-11.237,43.252,52.031,1.79E+08
11055,-10.513,46.029,53.873,1.01E+08
11056,-8.7036,43.978,52.413,1.26E+08
11057,-12.886,40.75,50.617,2.32E+08
11058,-13,42.687,51.729,2.01E+08
11059,-13,39.128,50.914,2.67E+08
11060,-13,40.845,52.526,2.65E+08
11061,-11.987,40.903,51.958,2.28E+08
11062,-12.908,42.727,51.349,1.92E+08
11063,-12.383,39.371,49.725,2.33E+08
11064,-12.886,39.228,50.349,2.62E+08
11065,-12.074,39.48,49.569,2.35E+08
11066,-12.718,43.797,51.357,1.67E+08
11067,-11.767,40.995,51.436,2.19E+08
11068,-13,46.319,53.84,1.29E+08
11069,-13,43.791,55.603,1.27E+08
11070,-12.867,45.656,52.662,1.51E+08
11071,-13,42.818,53.247,2.42E+08
11072,-11.987,42.875,52.68,1.97E+08
11073,-11.263,45.652,54.521,1.19E+08
11074,-13,49.001,57.073,7.56E+07
11075,-13,45.395,56.959,1.37E+08
11076,-12.91,47.273,54.013,1.11E+08
11077,-12.915,48.817,55.852,8.44E+07
11078,-11.263,47.255,55.878,9.22E+07
11079,-13,50.405,61.032,4.76E+07
11080,-13,46.432,58.786,1.36E+08
11081,-13,47.347,60.995,3.97E+07
11082,-12.921,49.856,57.677,6.75E+07
11083,-12.922,50.665,59.951,5.66E+07
11084,-11.263,48.292,57.704,7.62E+07
11085,-11.215,49.302,60.536,5.07E+07
11086,-13,47.692,63.067,4.57E+07
11087,-12.921,51.009,62.023,4.51E+07
11088,-11.706,49.452,64.485,3.91E+07
11089,-11.215,49.646,62.608,4.30E+07
11090,-12.356,50.568,63.407,4.11E+07
11091,-11.874,50.644,69.579,4.31E+07
11092,-12.813,49.791,70.517,5.12E+07
11093,-11.583,49.903,71.364,5.13E+07
11094,-11.301,50.236,71.224,4.00E+07
11095,-11.16,49.319,70.577,5.02E+07
11096,-10.425,50.542,70.971,4.08E+07
11097,-10.74,50.49,71.155,4.06E+07
11098,-9.05,50.913,68.623,4.60E+07
11099,-10.956,49.525,67.654,4.37E+07
11100,-10.796,49.432,70.482,5.10E+07
11101,-13,47.449,73.167,7.00E+07
11102,-11.822,49.019,72.138,6.38E+07
11103,-12.271,47.782,73.054,6.58E+07
11104,-11.546,48.594,71.508,6.27E+07
11105,-12.816,36.296,49.684,2.42E+08
11106,-12.78,37.774,49.88,2.72E+08
11107,-11.851,38,49.234,2.45E+08
11108,-11.76,36.196,49.273,2.89E+08
11109,-10.486,37.802,51.007,2.39E+08
11110,-11.578,39.529,51.038,2.20E+08
11111,-13,36.083,50.377,2.70E+08
11112,-13,32.443,50.969,2.31E+08
11113,-12.099,34.574,49.88,2.90E+08
11114,-13,34.457,52.226,3.38E+08
11115,-13,38.086,53.698,3.73E+08
11116,-12.195,36.041,49.965,3.12E+08
11117,-13,35.98,52.495,3.80E+08
11118,-13,39.322,52.258,2.78E+08
11119,-10.894,37.653,51.659,2.68E+08
11120,-11.987,39.38,51.69,2.49E+08
11121,-10.743,36.456,48.919,2.96E+08
11122,-11.299,36.331,49.005,2.91E+08
11123,-9.3171,39.5,49.456,1.97E+08
11124,-8.6632,37.649,49.13,2.16E+08
11125,-10.144,37.894,50.94,2.42E+08
11126,-11.237,39.621,50.971,2.24E+08
11127,-13,28.792,53.689,1.98E+08
11128,-12.186,32.498,50.748,2.87E+08
11129,-12.27,29.316,52.98,4.35E+08
11130,-13,30.162,55.638,4.87E+08
11131,-13,32.428,53.259,3.35E+08
11132,-11.467,31.601,52.76,3.18E+08
11133,-11.513,31.066,54.041,3.93E+08
11134,-13,26.253,57.468,2.28E+08
11135,-12.254,27.783,54.641,3.99E+08
11136,-13,28.592,57.286,4.51E+08
11137,-13,25.114,61.876,2.38E+08
11138,-11.631,25.396,58.13,5.51E+08
11139,-12.365,26.587,56.555,4.63E+08
11140,-12.309,25.071,61.145,4.89E+08
11141,-13,27.659,59.363,4.94E+08
11142,-11.017,26.791,59.327,4.54E+08
11143,-11.448,26.858,61.247,4.97E+08
11144,-13,25.505,66.412,1.62E+08
11145,-12.315,24.953,63.437,4.44E+08
11146,-13,27.469,61.631,4.62E+08
11147,-13,27.205,64.972,3.84E+08
11148,-11.448,26.669,63.516,4.59E+08
11149,-11.711,25.957,64.792,3.73E+08
11150,-13,27.383,70.56,1.51E+08
11151,-12.309,25.222,65.737,4.21E+08
11152,-12.194,26.594,69.596,2.90E+08
11153,-13,27.78,67.175,3.56E+08
11154,-13,28.875,69.222,2.24E+08
11155,-11.195,27.699,68.265,2.82E+08
11156,-11.711,26.532,66.995,3.46E+08
11157,-13,30.532,73.849,1.73E+08
11158,-12.201,27.845,71.474,2.99E+08
11159,-13,30.15,71.109,2.56E+08
11160,-11.195,28.974,70.151,2.96E+08
11161,-11.685,30.275,71.896,2.03E+08
11162,-13,34.596,75.903,1.55E+08
11163,-12.337,29.42,73.082,2.83E+08
11164,-12.265,33.427,75.634,1.53E+08
11165,-13,33.999,73.599,1.81E+08
11166,-13,31.98,72.463,2.45E+08
11167,-11.685,32.104,73.251,1.89E+08
11168,-13,39.111,76.489,1.30E+08
11169,-12.265,35.631,76.32,1.51E+08
11170,-12.172,38.208,76.675,1.33E+08
11171,-13,39.089,74.242,1.28E+08
11172,-13,36.175,74.268,1.99E+08
11173,-11.034,36.825,74.467,1.40E+08
11174,-13,43.564,75.541,9.14E+07
11175,-12.312,44.004,75.49,8.56E+07
11176,-12.157,40.459,76.555,1.06E+08
11177,-13,41.363,74.15,1.24E+08
11178,-11.52,42.092,75.162,9.29E+07
11179,-12.222,46.008,74.453,7.89E+07
11180,-13,43.478,73.307,1.19E+08
11181,-10.984,44.528,72.091,7.97E+07
11182,-11.546,46.879,73.005,7.19E+07
11183,-11.52,44.207,74.319,8.17E+07
11184,-13,32.793,60.608,1.16E+09
11185,-13,32.793,65.392,1.08E+09
11186,-10.833,32.317,63,1.00E+09
11187,-11.328,32.757,65.303,8.85E+08
11188,-13,31.069,61.051,9.93E+08
11189,-13,30.805,64.392,9.32E+08
11190,-13,36.175,57.226,7.65E+08
11191,-10.833,32.793,60.608,8.37E+08
11192,-10.265,35.347,57.643,7.76E+08
11193,-9.2773,33.928,58.812,7.99E+08
11194,-13,31.985,58.841,9.18E+08
11195,-13,34.251,56.463,7.76E+08
11196,-11.017,31.117,58.805,8.74E+08
11197,-11.513,32.889,57.245,8.43E+08
11198,-13,40.959,57.226,3.58E+08
11199,-10.265,37.642,56.819,5.35E+08
11200,-10.254,40.307,56.997,3.93E+08
11201,-13,36.46,55.547,4.89E+08
11202,-13,39.803,55.31,4.51E+08
11203,-10.894,38.134,54.711,4.00E+08
11204,-11.987,39.861,54.742,4.00E+08
11205,-13,44.341,60.608,1.23E+08
11206,-10.254,42.471,58.12,2.23E+08
11207,-10.254,44.042,59.985,1.31E+08
11208,-13,42.013,56.225,1.78E+08
11209,-11.987,42.071,55.658,1.27E+08
11210,-11.263,44.847,57.499,1.47E+08
11211,-11.215,45.856,60.331,1.32E+08
11212,-13,44.341,65.392,8.94E+07
11213,-10.254,44.779,62.31,7.64E+07
11214,-10.254,44.57,64.74,5.46E+07
11215,-11.706,46.577,64.418,5.75E+07
11216,-11.215,46.772,62.541,5.33E+07
11217,-13,40.959,68.774,2.35E+08
11218,-10.254,43.447,66.904,7.33E+07
11219,-10.468,41.648,68.438,1.20E+08
11220,-13,42.168,69.758,1.03E+08
11221,-10.984,43.218,68.541,9.20E+07
11222,-11.706,45.662,66.627,7.67E+07
11223,-13,36.175,68.774,6.07E+08
11224,-11.328,36.087,68.737,3.91E+08
11225,-10.468,39.332,69.203,2.69E+08
11226,-13,39.958,70.673,2.72E+08
11227,-13,37.044,70.7,2.62E+08
11228,-11.034,37.694,70.898,2.37E+08
11229,-11.328,34.08,67.351,7.57E+08
11230,-13,34.835,69.784,5.89E+08
11231,-13,31.72,66.601,7.63E+08
11232,-13,32.815,68.649,6.37E+08
11233,-9.669,33.034,48.316,3.79E+08
11234,-10.074,31.23,48.114,4.79E+08
11235,-9.5,28.951,47.596,4.18E+08
11236,-7.0632,32.002,48.134,2.93E+08
11237,-6.9364,29.937,47.77,3.04E+08
11238,-8.7876,29.869,49.427,3.94E+08
11239,-9.7167,31.975,50.674,4.15E+08
11240,-10.556,32.881,49.051,4.90E+08
11241,-10.143,32.932,48.381,4.43E+08
11242,-10.837,34.626,48.787,3.43E+08
11243,-7.3692,33.764,48.445,2.57E+08
11244,-7.9693,35.992,48.838,2.61E+08
11245,-10.023,33.737,50.985,3.81E+08
11246,-9.4503,36.237,50.647,2.88E+08
11247,-10.886,31.089,48.913,5.90E+08
11248,-11.114,32.74,49.361,4.87E+08
11249,-11,28.69,49.073,5.92E+08
11250,-11,29,50.805,7.17E+08
11251,-11.156,29.323,51.537,6.35E+08
11252,-9.5376,29.739,50.165,5.11E+08
11253,-10.467,31.845,51.413,5.35E+08
11254,-10.906,32.804,48.939,4.35E+08
11255,-10.886,28.79,48.508,5.47E+08
11256,-10.074,28.931,47.709,4.82E+08
11257,-10.561,27.769,47.834,5.10E+08
11258,-9.3179,29.831,49.643,4.58E+08
11259,-10.247,31.937,50.891,4.80E+08
11260,-11.739,31.09,51.226,4.98E+08
11261,-12.195,34.415,51.815,3.93E+08
11262,-10.662,33.588,51.316,3.81E+08
11263,-10.09,36.088,50.978,2.80E+08
11264,-10.074,8.2437,44.061,1.36E+08
11265,-9.5,10.562,44.354,1.35E+08
11266,-9.5,7.8616,43.869,2.47E+08
11267,-10.071,7.8307,43.978,2.09E+08
11268,-7.4332,8.2635,43.948,3.14E+08
11269,-7.4544,10.112,44.274,2.55E+08
11270,-8.8767,7.9971,45.105,2.33E+08
11271,-10.886,8.1027,44.86,9.59E+07
11272,-11,10.302,45.831,2.57E+07
11273,-11,7.5409,45.334,1.61E+08
11274,-11,8.575,47.046,4.96E+07
11275,-9.6267,7.8669,45.844,1.70E+08
11276,-10.886,10.401,45.266,4.13E+07
11277,-10.074,10.542,44.466,7.73E+07
11278,-10.883,7.6461,44.762,1.54E+08
11279,-10.556,7.7686,44.294,1.82E+08
11280,-10.561,11.42,44.951,7.65E+07
11281,-9.407,7.9589,45.322,1.78E+08
11282,-11,14.57,46.584,2.20E+08
11283,-11,12.998,48.677,1.76E+08
11284,-11,10.874,47.451,8.01E+07
11285,-10.886,13.634,45.836,1.84E+08
11286,-9.6267,10.165,46.249,1.26E+08
11287,-9.5439,12.496,47.385,1.46E+08
11288,-11,18.996,47.364,3.66E+08
11289,-11,17.415,49.907,3.50E+08
11290,-11,14.968,49.024,2.49E+08
11291,-10.886,15.604,46.183,2.57E+08
11292,-10.875,17.756,46.536,3.23E+08
11293,-9.5439,14.466,47.732,2.10E+08
11294,-9.5176,16.938,47.564,2.74E+08
11295,-11,23.922,48.233,4.97E+08
11296,-11,19.871,50.34,4.23E+08
11297,-11,22.393,50.291,5.28E+08
11298,-10.875,20.212,46.969,3.96E+08
11299,-10.886,22.916,47.472,4.59E+08
11300,-9.5176,19.394,47.997,3.44E+08
11301,-9.6671,22.693,49.175,4.20E+08
11302,-8.3443,20.918,49.002,3.51E+08
11303,-10.886,21.723,47.262,4.32E+08
11304,-11,26.815,50.544,6.67E+08
11305,-11,24.863,50.726,5.85E+08
11306,-10.886,25.386,47.908,5.16E+08
11307,-9.6671,25.163,49.61,4.76E+08
11308,-9.5376,27.44,49.76,4.60E+08
11309,-9.5,24.354,46.786,4.06E+08
11310,-10.074,25.527,47.108,4.49E+08
11311,-6.9545,25.108,46.919,3.44E+08
11312,-6.9364,27.638,47.365,3.12E+08
11313,-8.9171,25.294,48.872,4.17E+08
11314,-8.7876,27.57,49.021,4.00E+08
11315,-7.2657,26.146,49.145,3.49E+08
11316,-9.5,19.757,45.975,3.41E+08
11317,-10.048,20.522,46.215,3.70E+08
11318,-10.074,23.229,46.703,4.31E+08
11319,-6.9545,22.809,46.513,3.32E+08
11320,-7.9364,20.857,46.169,3.48E+08
11321,-8.7676,19.695,47.288,3.30E+08
11322,-8.9171,22.995,48.466,4.00E+08
11323,-7.5943,21.22,48.294,3.43E+08
11324,-10.074,22.035,46.493,4.05E+08
11325,-9.5,15.159,45.164,2.29E+08
11326,-10.074,16.074,45.442,2.55E+08
11327,-10.048,18.223,45.81,3.21E+08
11328,-7.6237,16.557,45.411,2.90E+08
11329,-7.9364,18.558,45.764,3.07E+08
11330,-8.7676,17.397,46.883,2.85E+08
11331,-10.074,13.775,45.036,1.89E+08
11332,-7.6237,14.258,45.005,2.47E+08
11333,-7.4544,12.41,44.68,2.46E+08
11334,-8.8767,10.296,45.511,1.82E+08
11335,-8.7939,12.627,46.646,1.81E+08
11336,-8.7676,15.098,46.478,2.28E+08
11337,-10.074,7.4343,43.884,2.84E+08
11338,-9.5956,5.3601,42.958,5.09E+08
11339,-7.4332,7.8616,43.869,3.56E+08
11340,-10.172,5.3779,43.1,5.52E+08
11341,-7.835,6.0032,43.267,4.03E+08
11342,-9.1427,5.2998,44.171,3.89E+08
11343,-8.8767,7.597,45.018,2.91E+08
11344,-10.886,7.2284,44.669,2.42E+08
11345,-11.085,4.8295,44.405,5.17E+08
11346,-11,5.4688,46.96,3.23E+08
11347,-11,8.1149,46.945,1.11E+08
11348,-9.8927,5.1095,44.896,3.14E+08
11349,-9.6267,7.4067,45.743,2.13E+08
11350,-10.977,5.083,43.881,5.25E+08
11351,-10.66,5.2567,43.411,5.28E+08
11352,-9.673,5.244,44.383,3.40E+08
11353,-9.407,7.5413,45.23,2.45E+08
11354,-12.668,-9.36E-12,35.433,4.99E+08
11355,-11.852,0.22828,36.233,4.94E+08
11356,-10.32,-7.63E-12,34.1,2.96E+08
11357,-12.26,5.48E-12,31.89,2.56E+08
11358,-14.786,-1.09E-11,34.359,3.53E+08
11359,-13.844,-1.02E-11,32.837,3.23E+08
11360,-12.886,-1.4917,33.979,3.36E+08
11361,-11.725,-0.95592,35.606,3.54E+08
11362,-12.629,-9.56E-12,38.106,7.24E+08
11363,-11.812,1.192,41.417,7.24E+08
11364,-12.117,1.23E-08,40.957,8.53E+08
11365,-12.214,0.54037,39.245,8.58E+08
11366,-14.096,-1.04E-11,39.525,5.96E+08
11367,-11.144,0.18365,40.299,6.83E+08
11368,-13.03,-1.4913,39.017,6.32E+08
11369,-11.66,-0.95592,38.269,5.93E+08
11370,-11.47,-1.9679,39.841,5.75E+08
11371,-11.942,0.49862,37.526,6.26E+08
11372,-12.248,0.40522,37.947,7.19E+08
11373,-14.856,-1.10E-11,35.694,4.67E+08
11374,-14.231,-1.05E-11,38.197,5.24E+08
11375,-12.956,-1.4917,35.314,4.57E+08
11376,-13.164,-1.4913,37.689,5.15E+08
11377,-11.795,-0.95592,36.941,4.79E+08
11378,-11.092,3.269,45.83,6.34E+08
11379,-11.451,1.4116,43.68,7.17E+08
11380,-11.273,1.5376,45.117,6.94E+08
11381,-11.568,1.3867,42.828,6.94E+08
11382,-11.629,1.7331,41.115,7.84E+08
11383,-11.248,3.1535,42.631,8.32E+08
11384,-10.606,1.5973,42.141,5.97E+08
11385,-10.069,2.9818,43.84,6.14E+08
11386,-10.406,2.0012,40.101,6.53E+08
11387,-10.831,2.1555,40.444,7.95E+08
11388,-10.461,3.5279,41.876,7.87E+08
11389,-7.9108,2.7659,41.005,5.50E+08
11390,-8.0336,4.0578,42.143,6.13E+08
11391,-9.8784,1.9368,41.438,6.08E+08
11392,-9.3413,3.3213,43.137,6.11E+08
11393,-9.5854,0.22808,36.224,4.18E+08
11394,-11.465,0.99068,38.624,7.66E+08
11395,-8.5065,1.4435,39.276,5.25E+08
11396,-8.3835,0.67052,37.7,4.54E+08
11397,-10.474,0.63357,39.711,5.69E+08
11398,-9.0669,-0.85203,38.235,4.25E+08
11399,-10.99,-0.506,37.681,5.02E+08
11400,10.434,8.2635,43.948,3.00E+08
11401,12.888,6.4082,43.433,5.11E+08
11402,12.463,10.456,44.335,1.26E+08
11403,12.018,6.6068,46.161,2.52E+08
11404,11.867,9.3903,46.551,1.49E+08
11405,-3.0034,8.2635,43.948,4.81E+08
11406,-4.1071,6.2216,43.359,4.70E+08
11407,-5.7683,6.382,43.423,4.87E+08
11408,-5.3876,10.112,44.274,4.01E+08
11409,-6.8099,7.9971,45.105,3.63E+08
11410,-4.4473,8.9106,45.896,4.27E+08
11411,-4.9508,6.5767,44.897,4.52E+08
11412,1.5745,8.2635,43.948,4.89E+08
11413,-1.744,6.2216,43.359,4.96E+08
11414,0.30557,6.0496,43.287,4.85E+08
11415,-1.1873,11.328,44.489,4.62E+08
11416,1.149,10.758,44.388,4.62E+08
11417,-3.0246,10.112,44.274,4.29E+08
11418,0.47677,8.8476,46.076,4.61E+08
11419,-2.0842,8.9106,45.896,4.54E+08
11420,1.2718,6.2264,45.202,4.46E+08
11421,-2.5878,6.5767,44.897,4.77E+08
11422,-0.71349,6.9431,45.764,4.65E+08
11423,6.0043,8.2635,43.948,4.21E+08
11424,2.5205,6.0496,43.287,4.67E+08
11425,4.3814,6.3644,43.416,4.81E+08
11426,5.8304,10.457,44.335,3.74E+08
11427,3.3639,10.758,44.388,4.43E+08
11428,2.6917,8.8476,46.076,4.43E+08
11429,5.0745,8.5784,46.076,3.95E+08
11430,3.4867,6.2264,45.202,4.28E+08
11431,5.4017,6.7933,45.096,4.07E+08
11432,10.741,6.4185,43.437,5.19E+08
11433,10.252,10.457,44.335,1.84E+08
11434,9.8753,6.5964,46.179,2.67E+08
11435,9.7736,9.3999,46.577,1.98E+08
11436,8.5376,5.2216,42.885,4.77E+08
11437,6.5963,6.3644,43.416,4.37E+08
11438,8.0453,10.457,44.335,3.19E+08
11439,7.2894,8.5784,46.076,3.43E+08
11440,7.6166,6.7933,45.096,3.61E+08
11441,8.8847,5.7826,44.269,3.78E+08
11442,17.523,0.1098,35.578,1.11E+09
11443,16.54,1.22E-11,34.1,8.82E+08
11444,19.749,1.35E-11,33.082,1.02E+09
11445,17.565,2.75E-11,30.803,7.14E+08
11446,18.057,-1.8564,35.019,9.66E+08
11447,19.338,-1.8094,33.59,1.01E+09
11448,17.628,-2.0185,33.001,7.96E+08
11449,13.795,3.2213,41.452,8.86E+08
11450,12.251,4.8142,45.453,4.96E+08
11451,12.907,2.0129,43.654,6.03E+08
11452,11.059,3.6351,41.813,6.66E+08
11453,11.406,4.0032,43.586,5.75E+08
11454,15.357,1.0871,38.635,1.12E+09
11455,14.688,-1.122,39.907,8.83E+08
11456,13.447,0.66467,42.376,7.75E+08
11457,11.675,2.3309,40.518,8.62E+08
11458,12.825,1.2124,38.873,8.62E+08
11459,11.951,0.34458,40.349,7.36E+08
11460,15.338,0.11608,35.62,9.26E+08
11461,15.601,-1.8818,38.385,9.27E+08
11462,16.859,-1.6297,36.528,1.07E+09
11463,13.765,0.53227,37.319,9.60E+08
11464,12.063,8.92E-12,34.1,5.94E+08
11465,13.132,2.43E-11,31.89,5.49E+08
11466,15.327,2.59E-11,30.803,5.50E+08
11467,14.594,-2.1228,36.89,6.13E+08
11468,15.835,-1.8581,35.023,7.81E+08
11469,12.729,0.15312,35.844,6.95E+08
11470,11.978,-2.1963,32.305,4.45E+08
11471,13.71,-2.8227,34.427,5.33E+08
11472,15.389,-2.0185,33.001,6.19E+08
11473,12.682,-1.8795,35.926,5.31E+08
11474,7.5863,5.61E-12,34.1,4.06E+08
11475,8.558,2.09E-11,32.629,4.30E+08
11476,10.893,2.26E-11,31.89,4.52E+08
11477,10.491,0.15312,35.844,5.71E+08
11478,8.8153,0.12624,35.684,4.73E+08
11479,9.7398,-2.1963,32.305,3.42E+08
11480,8.7606,-2.0194,34.475,3.62E+08
11481,11.472,-2.8227,34.427,4.17E+08
11482,10.444,-1.8795,35.926,4.12E+08
11483,3.1096,2.30E-12,34.1,2.61E+08
11484,3.8988,1.74E-11,33.003,2.93E+08
11485,6.3196,1.92E-11,32.629,3.55E+08
11486,6.577,0.12624,35.684,3.86E+08
11487,4.6405,0.29471,36.51,3.26E+08
11488,5.1164,-2.1963,32.863,2.65E+08
11489,4.0457,-1.5059,34.917,2.52E+08
11490,6.5223,-2.0194,34.475,2.81E+08
11491,-1.3671,-1.01E-12,34.1,1.53E+08
11492,-0.78916,1.40E-11,33.003,1.73E+08
11493,1.6604,1.58E-11,33.003,2.30E+08
11494,2.4022,0.29471,36.51,2.65E+08
11495,-0.33094,0.28068,36.453,2.06E+08
11496,0.43563,-2.1963,33.05,1.98E+08
11497,-0.93632,-1.506,34.92,1.57E+08
11498,1.8074,-1.5059,34.917,1.87E+08
11499,-5.8438,-4.32E-12,34.1,1.57E+08
11500,-5.4484,1.05E-11,32.629,9.38E+07
11501,-3.0275,1.23E-11,33.003,1.28E+08
11502,-2.5693,0.28068,36.453,1.88E+08
11503,-4.6419,0.11882,35.637,1.80E+08
11504,-4.2451,-2.1963,32.863,1.42E+08
11505,-3.1747,-1.506,34.92,1.17E+08
11506,-10.022,7.14E-12,31.89,1.66E+08
11507,-7.6867,8.86E-12,32.629,1.28E+08
11508,-6.8803,0.11882,35.637,2.33E+08
11509,-8.8686,-2.1963,32.305,1.34E+08
11510,-6.4835,-2.1963,32.863,1.47E+08
11511,-10.648,-1.4917,33.979,2.54E+08
11512,-8.2097,-2.768,34.639,1.91E+08
11513,-5.413,-1.506,34.92,1.47E+08
11514,-7.5637,-1.302,36.159,2.03E+08
11515,-9.487,-0.95592,35.606,2.76E+08
11516,10.55,40.911,49.705,1.59E+08
11517,12.406,39.372,49.434,1.90E+08
11518,13,38.574,49.5,1.93E+08
11519,13,43.202,50.321,1.50E+08
11520,13,41.8,51.999,1.66E+08
11521,13,39.621,51.066,2.33E+08
11522,11.281,40.873,51.647,1.69E+08
11523,-4.4171,40.911,49.705,1.38E+08
11524,-6.8485,43.947,50.618,1.25E+08
11525,-4.9789,42.917,50.22,1.25E+08
11526,-6.4803,39.061,49.379,1.80E+08
11527,-7.9614,39.306,51.189,1.99E+08
11528,-9.0538,41.033,51.22,1.85E+08
11529,-5.5674,39.847,51.471,1.47E+08
11530,-6.5207,41.759,51.602,1.32E+08
11531,0.75,40.911,49.705,1.13E+08
11532,-2.2618,42.917,50.22,1.13E+08
11533,-0.41694,43.112,50.288,1.07E+08
11534,-1.0602,38.367,49.256,1.06E+08
11535,-3.7632,39.061,49.379,1.51E+08
11536,-0.17342,39.099,51.398,8.46E+07
11537,-1.3803,41.505,52.106,9.12E+07
11538,-2.8503,39.847,51.471,1.20E+08
11539,0.46644,41.296,51.675,8.58E+07
11540,-3.8036,41.759,51.602,1.12E+08
11541,5.65,40.911,49.705,1.21E+08
11542,2.0331,43.112,50.288,1.04E+08
11543,3.8963,43.107,50.286,1.05E+08
11544,1.3898,38.367,49.256,9.09E+07
11545,3.8926,38.853,49.342,1.13E+08
11546,2.2766,39.099,51.398,8.10E+07
11547,4.6629,39.945,51.295,1.04E+08
11548,2.9164,41.296,51.675,8.94E+07
11549,9.9772,39.364,49.432,1.57E+08
11550,10.55,43.202,50.321,1.26E+08
11551,8.0764,44.605,50.925,1.05E+08
11552,6.3463,43.107,50.286,1.11E+08
11553,6.3426,38.853,49.342,1.27E+08
11554,8.1991,38.813,49.335,1.64E+08
11555,6.9833,42.421,52.214,9.98E+07
11556,8.9131,43.03,52.574,9.97E+07
11557,7.1129,39.945,51.295,1.27E+08
11558,8.8314,40.873,51.647,1.47E+08
11559,9.3349,38.433,50.906,1.84E+08
11560,11.392,36.236,48.881,2.76E+08
11561,11.142,32.419,48.208,3.97E+08
11562,11.063,32.819,49.141,4.60E+08
11563,11.417,34.72,49.251,3.25E+08
11564,8.5258,33.648,48.424,2.39E+08
11565,9.6897,35.667,48.78,2.69E+08
11566,9.9976,33.352,49.718,3.26E+08
11567,12.407,37.035,49.497,2.01E+08
11568,11.911,36.282,49.368,2.47E+08
11569,10.076,37.266,49.062,1.89E+08
11570,12.427,38.074,50.793,2.34E+08
11571,10.709,39.326,51.374,1.67E+08
11572,11.212,36.886,50.634,2.21E+08
11573,12.115,14.844,45.109,1.26E+08
11574,11.732,11.6,46.947,3.14E+07
11575,11.666,13.899,47.051,1.15E+08
11576,10.078,12.65,44.722,1.46E+08
11577,11.802,19.233,45.883,2.81E+08
11578,11.544,16.108,47.444,1.99E+08
11579,11.509,18.113,47.425,2.68E+08
11580,9.9125,14.845,45.109,1.84E+08
11581,9.5065,17.34,45.549,2.16E+08
11582,11.532,23.626,46.657,3.84E+08
11583,11.168,22.208,49.322,4.39E+08
11584,11.399,20.319,47.819,3.37E+08
11585,8.6706,22.211,46.408,2.70E+08
11586,9.3605,19.536,45.936,2.71E+08
11587,9.6057,21.05,48.51,3.12E+08
11588,9.8089,23.371,48.917,3.39E+08
11589,11.31,28.021,47.432,4.27E+08
11590,11.105,26.832,49.416,5.28E+08
11591,11.106,24.419,49.714,4.73E+08
11592,8.547,24.408,46.795,3.00E+08
11593,8.714,27.015,47.255,2.76E+08
11594,9.6854,25.568,49.305,3.72E+08
11595,11.056,29.048,49.801,5.38E+08
11596,11.11,30.65,48.84,4.89E+08
11597,8.5945,31.448,48.037,2.80E+08
11598,8.6161,29.213,47.642,2.87E+08
11599,10.066,31.153,49.33,3.64E+08
11600,-10.886,53.845,104.24,2.71E+07
11601,-11,52.992,102.16,2.44E+07
11602,-11,51.142,103.38,3.59E+07
11603,-11.137,52.266,104.62,3.18E+07
11604,-9.8409,52.938,104.08,2.80E+07
11605,-10.074,54.65,104.13,2.65E+07
11606,-9.5,54.48,101.97,2.95E+07
11607,-7.1548,54.837,104.68,4.49E+07
11608,-7.5208,54.498,102.11,4.48E+07
11609,-9.0909,53.682,103.98,3.18E+07
11610,-10.074,54.366,101.98,2.33E+07
11611,-10.886,53.562,102.09,1.92E+07
11612,-9.6212,53.464,104.01,2.65E+07
11613,-9.5,51.079,76.132,3.62E+07
11614,-10.074,50.682,73.994,4.32E+07
11615,-9.5415,50.707,73.311,4.89E+07
11616,-10.071,50.623,73.444,5.07E+07
11617,-7.5778,50.708,73.315,5.64E+07
11618,-7.8866,50.941,75.086,4.88E+07
11619,-8.7946,49.172,74.256,4.38E+07
11620,-9.4877,49.942,75.977,3.29E+07
11621,-9.875,50.423,74.028,4.41E+07
11622,-9.5,53.913,97.66,2.68E+07
11623,-10.561,53.761,99.87,2.01E+07
11624,-7.5208,54.215,99.953,4.13E+07
11625,-8.6083,52.015,100.13,2.79E+07
11626,-9.0909,53.398,101.83,2.85E+07
11627,-9.5,53.346,93.354,2.70E+07
11628,-10.561,53.194,95.564,2.54E+07
11629,-10.561,53.477,97.717,2.14E+07
11630,-6.3333,53.629,95.507,4.17E+07
11631,-7.5208,53.931,97.8,4.07E+07
11632,-7.8853,53.422,93.935,3.35E+07
11633,-8.8791,51.779,94.596,2.70E+07
11634,-8.6083,51.732,97.975,2.77E+07
11635,-7.8433,51.913,95.854,2.95E+07
11636,-9.5,52.779,89.049,2.28E+07
11637,-10.561,52.627,91.259,2.74E+07
11638,-10.561,52.91,93.411,2.55E+07
11639,-7.8853,53.139,91.782,3.21E+07
11640,-7.9333,52.934,90.222,2.81E+07
11641,-8.2713,51.501,90.409,2.48E+07
11642,-8.8791,51.495,92.443,2.62E+07
11643,-9.5,52.212,84.743,1.07E+07
11644,-10.561,52.06,86.953,2.26E+07
11645,-10.561,52.343,89.106,2.42E+07
11646,-6.6093,52.372,85.959,1.62E+07
11647,-7.9333,52.65,88.069,2.41E+07
11648,-8.2713,51.218,88.256,2.10E+07
11649,-8.5281,50.43,86.37,1.92E+07
11650,-9.5,51.645,80.438,1.24E+07
11651,-10.561,51.423,82.112,7.14E+06
11652,-10.561,51.777,84.8,1.54E+07
11653,-6.6093,52.089,83.806,7.60E+06
11654,-7.3787,51.741,81.166,1.49E+07
11655,-8.3748,50.168,81.479,1.03E+07
11656,-8.5281,50.147,84.217,1.28E+07
11657,-10.074,50.965,76.147,3.26E+07
11658,-10.561,51.139,79.959,9.71E+06
11659,-7.3787,51.458,79.013,2.55E+07
11660,-7.8866,51.224,77.238,3.65E+07
11661,-8.3748,49.884,79.326,1.94E+07
11662,-9.4877,50.226,78.13,2.15E+07
11663,-10.859,49.866,74.101,5.00E+07
11664,-11,49.547,75.988,3.58E+07
11665,-10.332,49.964,73.413,4.81E+07
11666,-11.03,49.385,73.664,6.71E+07
11667,-10.795,49.809,73.548,5.40E+07
11668,-11,47.462,75.694,4.86E+07
11669,-11.165,47.904,74.36,6.59E+07
11670,-9.5446,48.428,74.354,4.93E+07
11671,-10.546,48.73,72.834,6.19E+07
11672,-10.238,49.199,76.075,3.76E+07
11673,-10.625,49.68,74.126,4.94E+07
11674,-10.886,50.116,75.913,2.67E+07
11675,-10.886,50.373,77.87,1.74E+07
11676,-10.86,49.907,73.585,5.90E+07
11677,-10.551,50.336,73.483,4.74E+07
11678,-10.018,49.725,76.006,3.01E+07
11679,-10.405,50.206,74.057,4.20E+07
11680,-11,50.043,79.757,6.22E+06
11681,-11,47.595,77.355,2.86E+07
11682,-11,47.938,79.721,1.01E+07
11683,-10.238,49.437,77.887,1.47E+07
11684,-11,50.654,84.403,1.93E+07
11685,-11,47.934,84.195,2.61E+07
11686,-11,48.195,81.678,1.53E+07
11687,-9.1248,49.354,81.041,1.11E+07
11688,-9.2781,49.333,83.779,1.61E+07
11689,-10.238,49.695,79.844,7.07E+06
11690,-11,51.292,89.244,2.95E+07
11691,-11,48.288,86.884,3.38E+07
11692,-11,49.039,88.565,3.47E+07
11693,-9.0213,50.474,88.354,2.44E+07
11694,-9.2781,49.687,86.468,2.41E+07
11695,-11,51.859,93.55,2.94E+07
11696,-11,48.738,92.845,3.76E+07
11697,-11,49.322,90.718,3.66E+07
11698,-9.0213,50.758,90.507,2.64E+07
11699,-9.6291,50.752,92.541,2.84E+07
11700,-11,52.426,97.855,2.45E+07
11701,-11,49.022,94.998,3.65E+07
11702,-11,50.073,97.298,3.18E+07
11703,-9.6291,51.035,94.694,2.71E+07
11704,-9.3583,50.988,98.073,2.58E+07
11705,-8.5933,51.17,95.951,2.63E+07
11706,-11,50.8,101.39,2.98E+07
11707,-11,50.356,99.45,3.01E+07
11708,-9.3583,51.272,100.23,2.34E+07
11709,-9.8409,52.655,101.93,2.23E+07
11710,-10.155,50.549,72.782,5.13E+07
11711,-7.6594,50.62,72.652,5.89E+07
11712,-8.1316,50.602,70.188,4.50E+07
11713,-8.8762,49.084,73.593,4.52E+07
11714,-9.8776,49.386,72.072,5.30E+07
11715,-9.9566,50.336,73.364,4.44E+07
11716,-10.896,49.923,73.047,6.44E+07
11717,-11.322,48.011,73.887,7.42E+07
11718,-10.593,48.808,72.324,7.02E+07
11719,-10.341,49.231,72.206,5.75E+07
11720,-10.42,50.181,73.499,4.80E+07
11721,10.55,56.814,109.92,2.06E+07
11722,11.981,56.173,108.95,1.87E+07
11723,12.32,55.772,108.52,1.67E+07
11724,13,55.346,108.26,1.74E+07
11725,13,58.102,112.02,9.53E+06
11726,13,53.741,109.81,2.44E+07
11727,13,55.759,111.93,8.49E+06
11728,11.422,54.744,110.02,1.83E+07
11729,-4.15,56.814,109.92,2.90E+07
11730,-5.7048,55.562,107.7,4.09E+07
11731,-4.5237,56.173,108.95,3.84E+07
11732,-6.5751,58.452,112.78,1.60E+07
11733,-4.694,57.949,111.72,1.95E+07
11734,-5.6801,54.459,109.49,2.81E+07
11735,-8.2059,54.826,108.78,2.33E+07
11736,-5.6954,55.751,111.93,1.91E+07
11737,-7.811,55.566,110.81,2.00E+07
11738,-8.0039,56.745,112.7,1.47E+07
11739,0.75,56.814,109.92,3.37E+07
11740,0.13511,56.24,109.06,4.23E+07
11741,-2.0737,56.173,108.95,4.21E+07
11742,-2.244,57.949,111.72,2.33E+07
11743,-0.33471,57.941,111.7,2.38E+07
11744,-3.2301,54.459,109.49,3.15E+07
11745,-0.67341,55.135,110.79,2.91E+07
11746,-3.2454,55.751,111.93,2.27E+07
11747,-1.3103,56.416,112.95,2.09E+07
11748,-0.31547,54.702,108.86,3.66E+07
11749,5.65,56.814,109.92,3.25E+07
11750,4.0048,55.562,107.7,4.86E+07
11751,2.5851,56.24,109.06,4.36E+07
11752,2.1153,57.941,111.7,2.51E+07
11753,3.9575,57.88,111.59,2.55E+07
11754,4.0763,54.742,109.85,3.32E+07
11755,1.7766,55.135,110.79,3.02E+07
11756,3.4086,55.923,111.88,2.54E+07
11757,8.8596,55.562,107.7,3.64E+07
11758,9.5588,56.162,108.93,2.80E+07
11759,6.4548,55.562,107.7,4.52E+07
11760,10.55,58.102,112.02,1.86E+07
11761,7.8039,54.048,112.29,2.38E+07
11762,7.8747,58.67,113.34,1.90E+07
11763,6.4075,57.88,111.59,2.34E+07
11764,10.55,55.759,111.93,1.77E+07
11765,6.5263,54.742,109.85,3.08E+07
11766,8.9725,54.744,110.02,2.77E+07
11767,9.1684,55.209,108.54,2.82E+07
11768,8.999,55.182,112.42,2.00E+07
11769,7.1302,56.397,113.3,1.88E+07
11770,9.0449,56.432,113.72,1.67E+07
11771,5.8586,55.923,111.88,2.34E+07
11772,8.2857,54.832,107.79,3.48E+07
11773,10.185,55.199,106.64,3.31E+07
11774,7.2144,54.911,105.24,5.22E+07
11775,9.5302,54.837,104.68,4.21E+07
11776,10.31,54.093,104.78,3.76E+07
11777,10.126,54.805,105.14,3.78E+07
11778,10.677,54.889,106.13,3.00E+07
11779,9.928,54.257,106.2,3.31E+07
11780,9.0453,53.88,105.45,4.05E+07
11781,9.7425,54.291,104.4,3.73E+07
11782,11.394,55.291,107.4,2.31E+07
11783,10.431,54.153,109,2.53E+07
11784,10.627,54.617,107.52,2.61E+07
11785,2.4048,54.911,105.24,6.37E+07
11786,7.1548,54.837,104.68,5.23E+07
11787,3.3899,55.223,106.73,5.76E+07
11788,3.4946,54.675,103.45,6.46E+07
11789,5.1756,54.607,102.93,6.21E+07
11790,3.9614,53.087,104.72,5.45E+07
11791,4.8811,53.79,107.51,4.77E+07
11792,6.6405,53.88,105.45,5.00E+07
11793,2.9393,53.75,106.52,5.22E+07
11794,5.3419,52.72,106.08,4.99E+07
11795,-2.4048,54.911,105.24,6.07E+07
11796,0.98511,55.223,106.73,5.77E+07
11797,-1.2237,55.187,106.6,5.82E+07
11798,-0.79167,54.59,102.81,6.55E+07
11799,1.0898,54.675,103.45,6.62E+07
11800,1.5567,53.087,104.72,5.50E+07
11801,-1.3664,53.125,104.66,5.39E+07
11802,0.53453,53.75,106.52,5.30E+07
11803,-3.6285,55.187,106.6,5.41E+07
11804,-3.1965,54.59,102.81,6.19E+07
11805,-5.1756,54.572,102.67,5.69E+07
11806,-4.7849,53.507,107.15,4.46E+07
11807,-7.3107,53.874,106.44,3.89E+07
11808,-3.7712,53.125,104.66,5.01E+07
11809,-6.7457,53.755,104.54,4.34E+07
11810,-11,34.195,107.96,2.76E+07
11811,-11.115,32.628,111.58,1.60E+07
11812,-11,32.577,107.98,2.19E+07
11813,-10.886,32.253,109.91,1.77E+07
11814,-11.365,35.398,108.33,2.28E+07
11815,-9.5942,33.087,108.71,1.72E+07
11816,-10.02,33.066,110.96,1.58E+07
11817,-9.1484,35.205,109.61,1.52E+07
11818,-11,46.575,102.51,4.03E+07
11819,-11.13,50.164,103.81,3.49E+07
11820,-11.152,47.971,103.4,3.61E+07
11821,-11,48.447,100.83,3.82E+07
11822,-9.3583,49.363,101.61,3.21E+07
11823,-9.7292,48.906,103.96,3.08E+07
11824,-9.8409,50.746,103.31,3.09E+07
11825,-10.08,47.785,102.79,3.34E+07
11826,-11,41.957,103.04,4.02E+07
11827,-11.169,45.657,103.31,3.62E+07
11828,-11.228,43.34,103.67,3.30E+07
11829,-11,42.237,99.894,4.58E+07
11830,-11,46.125,100.75,3.96E+07
11831,-10.43,44.029,104.51,3.01E+07
11832,-9.208,43.891,101.64,3.10E+07
11833,-10.08,45.463,102.7,3.37E+07
11834,-11,37.703,104.91,3.69E+07
11835,-11.23,41.122,104.27,3.20E+07
11836,-11.273,38.858,105.39,3.16E+07
11837,-11,39.993,100.5,4.53E+07
11838,-11,38.288,101.95,4.30E+07
11839,-9.4604,36.808,103.34,2.82E+07
11840,-10.43,41.785,105.12,2.84E+07
11841,-9.4248,38.885,104.84,2.64E+07
11842,-8.5993,39.541,102.28,2.67E+07
11843,-9.208,41.648,102.25,2.96E+07
11844,-11,34.083,106.21,2.82E+07
11845,-11,33.839,104.35,3.00E+07
11846,-11.243,36.929,106.63,2.89E+07
11847,-11,36.325,103.2,4.04E+07
11848,-9.4604,34.845,104.59,2.58E+07
11849,-9.5942,34.593,106.94,2.26E+07
11850,-9.4248,36.923,106.08,2.37E+07
11851,-9.1484,36.711,107.84,2.19E+07
11852,-10.908,32.204,111.63,1.23E+07
11853,-10.804,31.959,113.34,1.06E+07
11854,-11.888,34.848,109.81,1.69E+07
11855,-12.195,34.957,113.41,1.22E+07
11856,-10.215,32.893,112.7,1.04E+07
11857,-10.562,33.141,114.34,9.26E+06
11858,-11.82,32.723,115.01,7.58E+06
11859,-11,1.915,49.954,6.82E+08
11860,-11,-0.49689,51.478,1.15E+09
11861,-11.005,1.22E-02,50.526,1.10E+09
11862,-11,3.23E-02,53.665,5.97E+08
11863,-11,2.2743,53,5.45E+08
11864,-9.183,-0.91716,52.462,6.89E+08
11865,-9.3466,1.5501,51.18,7.03E+08
11866,-9.8798,-0.7171,50.589,6.53E+08
11867,-11.007,1.8599,49.21,7.50E+08
11868,-11.053,1.858,47.777,5.35E+08
11869,-11,6.3931,50.996,2.13E+08
11870,-11,4.1342,51.683,2.79E+08
11871,-11,6.4334,48.613,2.26E+08
11872,-9.8927,3.428,46.564,4.29E+08
11873,-9.6267,5.7252,47.411,3.27E+08
11874,-9.3466,3.41,49.863,3.85E+08
11875,-9.8798,1.1428,49.272,2.99E+08
11876,-9.0945,5.5476,49.794,3.11E+08
11877,-8.4057,2.1707,48.13,3.04E+08
11878,-11,-2.7538,52.598,1.08E+09
11879,-11.002,-0.25604,50.939,1.35E+09
11880,-12.763,-1.0334,50.533,9.79E+08
11881,-12.055,-0.70023,50.708,1.22E+09
11882,-11,-0.46756,53.944,7.31E+08
11883,-9.183,-1.4171,52.741,9.19E+08
11884,-9.8798,-1.217,50.868,9.05E+08
11885,-11.711,-1.7651,50.549,1.01E+09
11886,-11,-10.266,54.538,3.23E+08
11887,-11,-12.355,54.645,1.94E+08
11888,-11.193,-12.355,52.258,2.03E+08
11889,-11.832,-12.357,53.134,2.02E+08
11890,-11.83,-12.213,53.132,2.11E+08
11891,-11,-10.829,56.846,1.87E+08
11892,-11,-13.114,56.208,1.71E+08
11893,-9.067,-10.988,55.133,1.83E+08
11894,-9.5263,-12.412,54.314,1.68E+08
11895,-9.7035,-11.348,53.203,1.76E+08
11896,-9.3696,-12.251,56.422,1.50E+08
11897,-11,-6.4328,53.867,6.19E+08
11898,-11.849,-10.282,53.051,3.46E+08
11899,-12.512,-7.7014,52.182,4.24E+08
11900,-11,-8.8914,56.664,2.85E+08
11901,-11,-6.616,56.172,3.12E+08
11902,-11.85,-8.528,51.056,3.53E+08
11903,-9.067,-9.0506,54.95,3.08E+08
11904,-9.7035,-9.4104,53.02,2.85E+08
11905,-8.5728,-7.1213,55.757,3.33E+08
11906,-9.53,-7.445,52.829,3.26E+08
11907,-12.636,-3.0157,51.216,6.89E+08
11908,-12.632,-5.8233,51.833,5.85E+08
11909,-11,-2.2516,54.721,4.66E+08
11910,-11,-4.7317,55.687,4.67E+08
11911,-11.1,-4.6686,50.603,5.26E+08
11912,-9.183,-3.2011,53.518,6.12E+08
11913,-9.8798,-3.001,51.646,5.80E+08
11914,-8.5728,-5.237,55.271,5.07E+08
11915,-9.53,-5.5607,52.343,4.94E+08
11916,-11.711,-3.5491,51.326,6.80E+08
11917,-11,-14.629,54.664,1.68E+08
11918,-11.097,-12.5,52.252,1.93E+08
11919,-11.831,-12.5,53.136,1.78E+08
11920,-11,-13.259,56.209,1.64E+08
11921,-9.5263,-12.556,54.316,1.57E+08
11922,-11,-18.887,54.659,1.37E+08
11923,-11,-20.053,56.587,1.04E+08
11924,-10.886,-21.54,54.871,9.53E+07
11925,-11.054,-21.772,52.859,1.04E+08
11926,-11.075,-19.217,52.562,1.42E+08
11927,-9.4557,-20.705,53.489,9.07E+07
11928,-9.143,-19.189,55.748,8.18E+07
11929,-11,-17.851,56.563,1.33E+08
11930,-11.097,-14.614,52.269,1.79E+08
11931,-11.075,-17.101,52.573,1.72E+08
11932,-11,-15.388,56.22,1.64E+08
11933,-9.4557,-18.576,53.505,1.19E+08
11934,-9.143,-17.06,55.764,1.12E+08
11935,-9.5263,-14.685,54.327,1.41E+08
11936,-8.517,-16.174,52.918,1.30E+08
11937,-11,0.52395,71.146,5.09E+07
11938,-11,5.0438,71.688,1.28E+08
11939,-10.886,2.6371,71.978,7.56E+07
11940,-11,2.122,68.835,7.80E+07
11941,-11,4.7624,69.047,1.16E+08
11942,-9.1857,1.8411,70.562,7.11E+07
11943,-9.4575,4.438,70.789,9.60E+07
11944,-9.1296,3.6777,69.159,1.08E+08
11945,-11,-3.705,70.138,5.38E+07
11946,-10.917,0.4865,71.64,4.77E+07
11947,-10.25,-1.7837,71.452,4.21E+07
11948,-10.903,-2.4103,71.07,3.89E+07
11949,-11,-2.48E-02,68.493,6.25E+07
11950,-11,-2.3169,68.803,6.64E+07
11951,-9.1857,-0.30569,70.22,5.70E+07
11952,-8.8532,-2.9277,69.556,3.97E+07
11953,-11,-7.7314,68.498,7.89E+07
11954,-10.561,-6.1496,70.377,4.78E+07
11955,-10.9,-4.5203,70.433,5.22E+07
11956,-10.894,-6.8969,69.507,6.31E+07
11957,-11,-5.8805,66.614,1.04E+08
11958,-11,-4.3868,68.139,7.95E+07
11959,-8.8532,-4.9975,68.892,4.26E+07
11960,-9.845,-6.561,68.627,5.15E+07
11961,-11,-11.462,66.265,9.18E+07
11962,-10.561,-10.184,68.363,5.90E+07
11963,-10.894,-8.8839,68.522,7.27E+07
11964,-10.894,-10.79,67.389,7.82E+07
11965,-11,-7.8253,65.643,1.14E+08
11966,-9.845,-8.5058,67.656,6.02E+07
11967,-9.7261,-10.354,66.326,6.42E+07
11968,-11,-14.809,63.491,9.32E+07
11969,-10.561,-13.865,65.758,6.48E+07
11970,-10.894,-12.604,66.113,8.14E+07
11971,-10.894,-14.316,64.703,8.06E+07
11972,-11,-9.5998,64.388,1.17E+08
11973,-11,-12.902,63.168,1.17E+08
11974,-9.7517,-13.957,63.534,7.21E+07
11975,-9.7261,-12.128,65.071,6.73E+07
11976,-11,-17.695,60.239,9.56E+07
11977,-10.561,-17.107,62.624,6.61E+07
11978,-10.894,-15.915,63.167,7.93E+07
11979,-10.895,-17.469,61.415,8.10E+07
11980,-11,-15.166,59.846,1.27E+08
11981,-11,-14.464,61.658,1.16E+08
11982,-9.7517,-15.52,62.023,7.07E+07
11983,-10.25,-20.665,56.854,7.67E+07
11984,-10.917,-20.506,56.786,9.05E+07
11985,-10.25,-19.574,58.865,7.35E+07
11986,-10.902,-18.782,59.652,8.55E+07
11987,-11,-16.48,58.115,1.31E+08
11988,-9.143,-18.153,57.659,7.91E+07
11989,-9.7517,-16.835,60.292,7.40E+07
11990,-11,30.955,96.347,5.10E+07
11991,-11,31.599,100.55,3.28E+07
11992,-10.886,30.785,98.765,3.33E+07
11993,-11,33.329,97.152,5.01E+07
11994,-11,34.085,99.39,4.20E+07
11995,-9.5406,31.498,98.011,3.28E+07
11996,-9.4604,32.605,100.78,2.80E+07
11997,-8.7813,33.407,98.395,2.97E+07
11998,-11,29.634,91.784,8.56E+07
11999,-10.851,30.308,96.441,4.56E+07
12000,-10.821,28.564,91.004,9.72E+07
12001,-11,32.284,91.899,7.72E+07
12002,-11,32.842,94.827,6.26E+07
12003,-9.6234,30.895,91.701,6.64E+07
12004,-9.5406,31.011,95.686,4.52E+07
12005,-8.9178,31.908,93.767,4.96E+07
12006,-10.829,29.716,94.244,5.78E+07
12007,-11,27.642,87.472,1.43E+08
12008,-10.892,27.71,88.791,1.19E+08
12009,-11,29.869,87.202,1.26E+08
12010,-11,31.454,89.674,1.01E+08
12011,-9.6234,30.064,89.476,8.93E+07
12012,-11,25.024,83.508,2.14E+08
12013,-10.25,25.782,85.854,1.60E+08
12014,-10.892,26.556,86.719,1.54E+08
12015,-11,28.713,85.127,1.63E+08
12016,-11,27.241,82.739,1.95E+08
12017,-9.1975,26.021,82.881,1.50E+08
12018,-8.8434,27.251,85.005,1.30E+08
12019,-11,21.839,79.983,2.85E+08
12020,-10.25,24.327,83.976,1.93E+08
12021,-10.87,22.303,81.217,2.65E+08
12022,-10.818,25.125,84.827,1.87E+08
12023,-11,25.787,80.862,2.34E+08
12024,-11,23.555,79.739,2.67E+08
12025,-9.1975,24.566,81.004,1.88E+08
12026,-11,18.161,76.977,3.34E+08
12027,-10.25,19.582,78.991,2.82E+08
12028,-10.892,20.578,79.587,2.99E+08
12029,-11,20.909,76.185,3.33E+08
12030,-11,21.834,78.101,3.06E+08
12031,-9.5427,19.871,77.131,2.55E+08
12032,-8.7376,20.959,78.905,2.13E+08
12033,-11,14.072,74.558,3.19E+08
12034,-10.25,17.635,77.631,2.92E+08
12035,-10.87,14.882,75.598,3.34E+08
12036,-10.818,18.65,78.206,3.06E+08
12037,-11,16.471,73.332,3.54E+08
12038,-11,18.962,74.825,3.52E+08
12039,-9.5427,17.924,75.771,2.71E+08
12040,-9.0243,14.904,74.473,2.48E+08
12041,-9.1427,16.427,75.497,2.55E+08
12042,-11,9.6666,72.782,2.38E+08
12043,-10.25,9.4667,73.597,2.19E+08
12044,-10.892,12.751,74.555,3.04E+08
12045,-11,14.342,72.28,3.29E+08
12046,-11,11.736,71.161,2.82E+08
12047,-8.6069,10.903,72.55,1.94E+08
12048,-9.0243,12.774,73.422,2.22E+08
12049,-10.833,4.9827,72.33,1.26E+08
12050,-10.25,7.2032,72.878,1.68E+08
12051,-10.818,10.499,73.81,2.46E+08
12052,-11,9.4724,70.441,2.30E+08
12053,-11,7.1085,69.418,1.68E+08
12054,-9.4575,6.7841,71.16,1.46E+08
12055,-8.6069,8.6395,71.831,1.44E+08
12056,-11,32.088,104.26,2.50E+07
12057,-10.886,32.008,108.06,1.78E+07
12058,-10.886,31.643,105.28,2.02E+07
12059,-9.4604,33.094,104.5,2.03E+07
12060,-9.5942,32.842,106.85,1.71E+07
12061,-10.886,31.03,100.62,2.77E+07
12062,-10.886,31.398,103.42,2.23E+07
12063,-11,34.33,101.25,3.65E+07
12064,-9.4604,32.85,102.64,2.23E+07
12065,-11,25.747,54.289,8.19E+08
12066,-11.156,27.677,53.088,7.09E+08
12067,-11,25.286,52.603,7.03E+08
12068,-9.6671,25.587,51.487,6.05E+08
12069,-9.5376,27.863,51.636,5.86E+08
12070,-9.0183,27.167,53.722,5.91E+08
12071,-11,23.706,58.596,8.13E+08
12072,-11.215,26.329,55.042,7.47E+08
12073,-11.328,24.582,59.56,7.66E+08
12074,-11,21.801,57.216,6.67E+08
12075,-11,23.947,54.574,7.21E+08
12076,-10.017,26.323,57.697,7.55E+08
12077,-9.1155,22.757,55.708,6.21E+08
12078,-9.2197,23.713,57.556,6.40E+08
12079,-9.0183,25.828,55.693,6.21E+08
12080,-11,23.07,63.321,7.39E+08
12081,-11.193,23.971,61.834,7.29E+08
12082,-11,20.301,62.421,5.97E+08
12083,-11,21.124,59.501,6.37E+08
12084,-10.017,25.646,59.982,7.19E+08
12085,-9.3179,24.341,61.909,6.08E+08
12086,-9.2197,23.035,59.841,6.03E+08
12087,-8.7725,22.011,61.987,5.65E+08
12088,-11,23.901,68.015,5.96E+08
12089,-11.212,24.012,64.194,6.90E+08
12090,-11.247,25.001,68.224,5.69E+08
12091,-11,20.35,64.804,5.56E+08
12092,-11,22.291,67.56,5.73E+08
12093,-9.3179,24.391,64.292,5.70E+08
12094,-9.1996,20.993,66.544,4.98E+08
12095,-9.1696,23.491,66.808,5.02E+08
12096,-8.7725,22.06,64.37,5.27E+08
12097,-10.711,25.05,65.562,6.42E+08
12098,-11,26.118,72.234,3.97E+08
12099,-11.135,25.809,70.458,4.62E+08
12100,-11,23.304,72.085,4.09E+08
12101,-11,23.062,69.815,4.70E+08
12102,-9.0227,22.211,70.881,3.48E+08
12103,-10.195,26.988,69.087,4.69E+08
12104,-9.1352,24.359,72.389,3.26E+08
12105,-9.1696,24.262,69.064,3.95E+08
12106,-8.5795,26.245,70.504,3.40E+08
12107,-10.711,25.821,67.817,5.36E+08
12108,-11,29.513,75.581,2.48E+08
12109,-11.16,27.22,72.37,3.66E+08
12110,-11.347,31.03,75.239,2.27E+08
12111,-11,24.724,73.999,3.25E+08
12112,-11,27.881,77.038,2.53E+08
12113,-11,25.649,75.915,2.86E+08
12114,-9.1975,26.66,77.181,2.03E+08
12115,-9.1352,25.779,74.303,2.37E+08
12116,-10.685,29.709,72.746,2.80E+08
12117,-8.6966,28.033,74.798,2.15E+08
12118,-8.5795,27.665,72.419,2.49E+08
12119,-11,33.764,77.737,1.62E+08
12120,-11.184,32.982,76.557,1.70E+08
12121,-11,29.815,78.431,2.03E+08
12122,-11,32.069,78.719,1.78E+08
12123,-9.5542,34.409,76.715,1.41E+08
12124,-9.0933,31.241,78.173,1.49E+08
12125,-9.2351,33.04,78.8,1.40E+08
12126,-10.685,31.643,74.139,2.19E+08
12127,-8.6966,29.968,76.191,1.59E+08
12128,-8.7131,32.514,75.724,1.48E+08
12129,-11,38.469,78.5,1.07E+08
12130,-11.179,35.229,77.287,1.40E+08
12131,-11.151,37.836,77.718,1.18E+08
12132,-11,36.057,81.009,1.23E+08
12133,-11,34.336,79.457,1.51E+08
12134,-9.5542,36.675,77.454,1.13E+08
12135,-8.9234,37.588,80.098,9.61E+07
12136,-9.2351,35.306,79.538,1.13E+08
12137,-11,43.184,77.796,5.87E+07
12138,-11.12,40.213,77.726,9.58E+07
12139,-11,40.814,81.389,7.40E+07
12140,-11,43.472,79.986,5.19E+07
12141,-11,38.44,81.024,9.57E+07
12142,-9.5542,39.058,77.469,8.88E+07
12143,-10.52,41.83,76.225,7.24E+07
12144,-8.9234,39.972,80.113,7.06E+07
12145,-8.6762,42.455,78.744,5.82E+07
12146,-8.1929,40.634,77.626,6.57E+07
12147,-11.161,45.958,75.723,6.03E+07
12148,-11.22,42.492,77.051,7.19E+07
12149,-11,45.747,79.276,2.73E+07
12150,-9.5446,46.476,75.722,4.30E+07
12151,-9.1248,46.905,78.639,2.78E+07
12152,-10.52,44.106,75.515,6.46E+07
12153,-8.6762,44.73,78.034,3.67E+07
12154,-10.238,47.247,77.443,3.15E+07
12155,-13.451,-24.504,41.646,1.91E+07
12156,-13.823,-23.46,41.887,2.19E+07
12157,-15.273,-21.418,39.199,5.33E+07
12158,-12.848,-23.104,40.022,9.56E+07
12159,-12.848,-24.046,40.945,4.63E+07
12160,-13.66,-20.673,42.298,5.90E+07
12161,-13.739,-24.037,41.779,2.02E+07
12162,-13.169,-22.367,40.985,3.93E+07
12163,-11.019,-24.932,45.03,5.86E+07
12164,-12.386,-24.256,43.331,4.36E+07
12165,-11.355,-25,43,6.26E+07
12166,-11.355,-24.842,42.419,8.59E+07
12167,-12.229,-24.884,43.24,3.77E+07
12168,-9.5629,-23.221,53.171,6.47E+07
12169,-10.074,-22.281,55.202,7.10E+07
12170,-10.676,-22.648,53.256,7.69E+07
12171,-9.5,-21.371,57.302,5.60E+07
12172,-10.228,-23.034,53.214,6.72E+07
12173,-8.2625,-23.266,53.052,8.07E+07
12174,-7.0672,-22.087,55.895,5.75E+07
12175,-6.9718,-22.933,53.943,7.99E+07
12176,-8.7057,-21.39,53.796,6.90E+07
12177,-8.393,-19.874,56.055,5.64E+07
12178,-10.049,-24.376,49.07,6.94E+07
12179,-11.177,-23.974,47.21,6.46E+07
12180,-11.76,-24.115,45.376,5.62E+07
12181,-10.73,-24.93,45.05,7.45E+07
12182,-8.7294,-24.93,45.05,1.14E+08
12183,-11.551,-24.765,45.235,5.06E+07
12184,-10.987,-24.564,47.225,5.80E+07
12185,-8.2569,-24.721,47.078,1.05E+08
12186,-8.742,-24.403,48.953,8.80E+07
12187,-9.2969,-23.095,46.2,9.38E+07
12188,-9.8368,-23.947,44.765,8.85E+07
12189,-10.204,-23.837,48.32,7.11E+07
12190,-10.662,-24.198,49.218,5.77E+07
12191,-10.329,-23.759,51.093,6.89E+07
12192,-8.39,-23.936,50.918,8.68E+07
12193,-8.8332,-22.146,51.693,7.06E+07
12194,-9.8518,-23.426,50.296,7.17E+07
12195,-10.93,-22.306,53.045,9.10E+07
12196,-10.109,-21.25,57.255,6.63E+07
12197,-10.578,-20.432,58.033,7.65E+07
12198,-9.236,-21.189,53.706,7.92E+07
12199,-8.9233,-19.674,55.965,6.88E+07
12200,-11.496,-22.881,49.188,8.96E+07
12201,-11.255,-19.914,50.772,1.38E+08
12202,-11.109,-22.943,51.078,8.71E+07
12203,-9.5643,-21.394,51.69,8.49E+07
12204,-10.583,-22.674,50.293,8.60E+07
12205,-12.417,-23.438,45.482,6.64E+07
12206,-12.307,-20.613,45.905,1.08E+08
12207,-11.558,-20.347,48.914,1.28E+08
12208,-11.771,-23.79,47.357,6.39E+07
12209,-11.414,-23.344,49.218,7.60E+07
12210,-10.015,-22.35,46.319,9.68E+07
12211,-10.921,-23.092,48.44,7.55E+07
12212,-12.031,-24.256,43.331,5.73E+07
12213,-12.031,-24.063,42.762,8.67E+07
12214,-12.925,-20.768,44.082,9.69E+07
12215,-12.938,-24.072,43.583,4.53E+07
12216,-12.291,-23.975,45.471,5.14E+07
12217,-10.598,-22.491,44.485,8.70E+07
12218,-11.138,-23.343,43.051,8.19E+07
12219,-12.352,-22.476,42.731,8.59E+07
12220,-10.074,2.5711,72.787,9.28E+07
12221,-9.5,0.28837,72.628,8.55E+07
12222,-9.5,4.8095,73.17,1.35E+08
12223,-7.5,2.5619,72.901,1.03E+08
12224,-7.5,4.5833,73.135,1.01E+08
12225,-7.5,0.60117,72.676,9.15E+07
12226,-8.4357,1.7801,71.309,1.08E+08
12227,-8.7075,4.3771,71.537,1.29E+08
12228,-7.541,3.7034,72.069,1.06E+08
12229,-10.109,0.29202,72.497,5.98E+07
12230,-10.04,4.8103,73.059,1.15E+08
12231,-10.587,8.2165,73.57,1.84E+08
12232,-10.588,-0.32615,72.049,4.43E+07
12233,-8.966,1.798,71.09,7.98E+07
12234,-9.2379,4.3949,71.318,1.03E+08
12235,-9.5,-18.889,61.147,4.62E+07
12236,-7.0672,-21.025,57.924,5.17E+07
12237,-7.689,-20.003,59.579,3.51E+07
12238,-10.097,-19.484,60.12,6.01E+07
12239,-8.393,-18.783,58.066,5.37E+07
12240,-9.5,-15.851,64.569,3.86E+07
12241,-7.3156,-17.251,63.122,9.79E+06
12242,-7.689,-18.665,61.438,3.04E+07
12243,-10.103,-16.512,63.728,5.36E+07
12244,-10.105,-18.098,61.943,5.63E+07
12245,-8.393,-17.399,59.888,5.08E+07
12246,-9.0017,-16.081,62.521,4.50E+07
12247,-9.5,-12.328,67.49,3.15E+07
12248,-7.5,-13.154,66.884,1.93E+07
12249,-7.3602,-14.279,65.986,1.42E+07
12250,-7.3156,-15.652,64.76,7.34E+06
12251,-10.103,-13.109,66.759,5.12E+07
12252,-10.094,-14.863,65.318,5.09E+07
12253,-9.0017,-14.436,64.112,4.24E+07
12254,-8.9761,-12.607,65.648,3.72E+07
12255,-9.5,-8.4015,69.84,3.43E+07
12256,-7.5,-11.279,68.199,2.69E+07
12257,-7.5,-9.3793,69.329,3.11E+07
12258,-10.103,-9.2849,69.237,4.40E+07
12259,-10.094,-11.238,68.08,4.87E+07
12260,-7.8253,-9.462,67.385,3.75E+07
12261,-9.0949,-8.8911,68.3,3.66E+07
12262,-8.9761,-10.739,66.97,3.67E+07
12263,-9.5,-4.1632,71.566,4.85E+07
12264,-7.5,-5.7266,71.017,4.61E+07
12265,-7.5,-7.3292,70.349,4.30E+07
12266,-10.125,-4.8044,71.208,3.77E+07
12267,-10.094,-7.2341,70.258,4.36E+07
12268,-8.1032,-5.2804,69.586,5.20E+07
12269,-9.0949,-6.8439,69.322,4.14E+07
12270,-7.5,-1.6494,72.254,6.04E+07
12271,-7.5,-3.5585,71.753,5.78E+07
12272,-10.109,-2.6123,71.884,4.33E+07
12273,-8.4357,-0.47963,70.95,7.97E+07
12274,-8.1032,-3.1016,70.285,6.16E+07
12275,-10.074,29.98,98.871,2.69E+07
12276,-9.5,29.487,96.654,3.59E+07
12277,-9.5,30.112,100.74,2.30E+07
12278,-7.125,29.867,98.886,2.15E+07
12279,-8.7906,30.754,98.108,2.50E+07
12280,-10.043,29.59,96.65,3.85E+07
12281,-10.074,30.225,100.73,2.41E+07
12282,-10.561,30.671,101.63,2.38E+07
12283,-9.3209,30.972,98.08,2.80E+07
12284,-9.2407,32.079,100.85,2.31E+07
12285,-10.421,29.8,96.606,4.12E+07
12286,-9.5,9.2121,74.211,2.04E+08
12287,-7.5,8.7748,74.076,1.29E+08
12288,-7.5,6.8076,73.556,1.13E+08
12289,-10.095,10.328,74.473,2.29E+08
12290,-8.7075,6.6114,71.89,1.48E+08
12291,-7.8569,8.4668,72.561,1.54E+08
12292,-9.5,13.14,75.772,2.53E+08
12293,-7.5,10.916,74.81,1.67E+08
12294,-7.4284,12.602,75.52,1.67E+08
12295,-10.1,12.443,75.311,2.80E+08
12296,-7.8569,10.623,73.246,1.94E+08
12297,-8.2743,12.494,74.117,2.13E+08
12298,-9.5,17.057,78.037,2.48E+08
12299,-7.2032,15.934,77.306,1.56E+08
12300,-7.4284,14.362,76.396,1.64E+08
12301,-10.104,14.204,76.167,2.86E+08
12302,-8.2743,14.264,74.97,2.13E+08
12303,-8.3927,15.787,75.994,2.15E+08
12304,-9.5,20.571,80.849,2.24E+08
12305,-6.75,19.44,79.848,1.32E+08
12306,-7.2032,18.052,78.748,1.47E+08
12307,-10.043,16.386,77.487,2.73E+08
12308,-10.089,20.077,80.198,2.61E+08
12309,-8.7927,19.397,77.711,2.15E+08
12310,-7.9876,20.484,79.486,1.76E+08
12311,-8.3927,17.9,77.438,2.03E+08
12312,-9.5,23.64,84.174,1.72E+08
12313,-6.75,20.885,81.146,1.13E+08
12314,-6.2206,21.491,81.744,1.06E+08
12315,-7.2463,22.689,83.033,1.29E+08
12316,-10.104,21.47,81.542,2.42E+08
12317,-8.4475,23.792,81.271,1.64E+08
12318,-7.9876,21.905,80.809,1.56E+08
12319,-9.5,26.185,87.943,1.18E+08
12320,-7.2463,24.307,85.049,9.72E+07
12321,-7.0248,25.934,87.51,8.21E+07
12322,-10.043,23.177,83.467,2.06E+08
12323,-10.089,25.895,87.153,1.37E+08
12324,-8.4475,25.395,83.295,1.28E+08
12325,-8.0934,26.625,85.418,1.10E+08
12326,-9.5,28.124,92.031,7.02E+07
12327,-7.0248,26.88,89.234,5.86E+07
12328,-7.0956,27.857,91.363,5.26E+07
12329,-10.104,26.837,88.872,1.12E+08
12330,-8.0934,27.599,87.126,8.47E+07
12331,-8.8734,29.256,89.522,8.07E+07
12332,-7.125,29.487,96.654,2.90E+07
12333,-7.0956,28.732,93.77,3.02E+07
12334,-10.038,27.894,91.191,8.69E+07
12335,-8.8734,30.175,91.91,5.46E+07
12336,-8.7906,30.29,95.894,3.70E+07
12337,-8.1678,31.187,93.975,3.87E+07
12338,-9.9481,29.009,94.449,5.02E+07
12339,-10.074,31.448,110.02,1.31E+07
12340,-9.5,31.09,108.18,1.51E+07
12341,-9.6509,31.557,111.72,1.14E+07
12342,-7.5827,31.626,112.25,1.20E+07
12343,-7.5963,31.231,109.25,1.57E+07
12344,-8.8442,32.343,108.81,1.24E+07
12345,-9.2696,32.323,111.06,1.09E+07
12346,-10.074,31.203,108.16,1.53E+07
12347,-10.331,31.714,111.67,1.15E+07
12348,-10.561,31.405,107.2,1.60E+07
12349,-9.3745,32.561,108.78,1.33E+07
12350,-9.7999,32.54,111.03,1.18E+07
12351,-9.5,30.601,104.46,1.89E+07
12352,-7.125,30.112,100.74,2.02E+07
12353,-10.074,30.593,103.53,1.88E+07
12354,-6.9271,30.418,103.07,2.10E+07
12355,-8.7906,30.999,99.967,2.23E+07
12356,-8.7104,32.106,102.74,1.77E+07
12357,-10.074,30.838,105.38,1.69E+07
12358,-6.9271,30.662,104.93,1.99E+07
12359,-7.5963,30.987,107.39,1.75E+07
12360,-8.7104,32.351,104.6,1.60E+07
12361,-8.8442,32.099,106.95,1.46E+07
12362,-7.8553,31.846,113.92,1.04E+07
12363,-9.5422,32.542,112.73,9.34E+06
12364,-9.8891,32.79,114.36,8.05E+06
12365,7.125,29.867,98.886,6.63E+07
12366,9.5,30.063,100.37,6.46E+07
12367,9.5,29.487,96.654,1.01E+08
12368,10.074,29.98,98.871,7.75E+07
12369,8.433,30.982,97.888,7.41E+07
12370,-2.375,29.867,98.886,2.74E+07
12371,-4.7206,29.331,95.952,1.85E+07
12372,-2.4509,29.561,97.018,2.81E+07
12373,-4.5521,30.173,101.21,2.40E+07
12374,-6.4156,30.754,98.108,1.91E+07
12375,-6.3354,31.861,100.88,1.58E+07
12376,-3.5087,32.14,97.599,9.39E+06
12377,-3.6415,31.854,100.29,1.40E+07
12378,-5.6563,32.663,98.493,1.30E+07
12379,2.375,29.867,98.886,4.65E+07
12380,-7.59E-02,29.561,97.018,3.78E+07
12381,0.60807,30.199,101.41,3.32E+07
12382,-2.1771,30.173,101.21,2.84E+07
12383,1.2493,32.069,99.563,3.13E+07
12384,1.4225,31.602,96.734,3.70E+07
12385,-1.1337,32.14,97.599,1.83E+07
12386,-1.2665,31.854,100.29,2.12E+07
12387,7.125,30.063,100.37,5.59E+07
12388,7.125,29.487,96.654,9.16E+07
12389,4.4741,29.207,95.441,7.59E+07
12390,2.2991,29.561,97.018,4.95E+07
12391,2.9831,30.199,101.41,4.30E+07
12392,5.2513,30.192,101.36,4.79E+07
12393,6.058,30.982,97.888,6.50E+07
12394,6.0962,32.056,101.03,5.04E+07
12395,3.6243,32.069,99.563,4.31E+07
12396,3.7975,31.602,96.734,4.87E+07
12397,5.7266,32.612,98.356,5.72E+07
12398,9.5,31.09,108.18,2.02E+07
12399,9.6571,31.563,111.77,9.27E+06
12400,10.074,31.448,110.02,1.32E+07
12401,10.107,31.545,110.73,1.16E+07
12402,7.2322,31.454,110.94,1.36E+07
12403,7.2441,31.167,108.76,1.90E+07
12404,8.9508,32.689,109.22,1.82E+07
12405,9.2085,32.453,110.76,1.24E+07
12406,9.5,30.552,104.09,4.11E+07
12407,10.561,31.281,106.26,3.40E+07
12408,10.074,31.203,108.16,2.18E+07
12409,7.6263,30.682,105.07,3.38E+07
12410,7.2441,30.923,106.9,2.59E+07
12411,8.4711,32.546,104.74,3.74E+07
12412,8.9508,32.445,107.36,2.65E+07
12413,10.561,30.498,100.31,6.76E+07
12414,10.561,30.743,102.17,5.52E+07
12415,10.561,30.988,104.03,4.58E+07
12416,10.074,30.176,100.36,6.66E+07
12417,7.6263,30.388,102.84,4.51E+07
12418,8.433,31.178,99.374,6.34E+07
12419,8.4711,32.252,102.51,4.84E+07
12420,12.172,32.414,118.23,6.34E+06
12421,10.55,32.615,119.76,5.78E+06
12422,13,32.508,117.55,5.64E+06
12423,12.553,32.451,118.13,5.82E+06
12424,13,33.158,122.16,3.00E+06
12425,13,34.828,117.18,9.40E+06
12426,13,34.777,120.49,2.45E+06
12427,11.728,33.956,118.63,4.29E+06
12428,10.665,32,115.09,7.77E+06
12429,9.7405,32.412,118.22,7.96E+06
12430,11.24,32.1,114.96,8.42E+06
12431,11.77,32.249,116.58,8.16E+06
12432,8.8276,32.169,116.37,1.03E+07
12433,10.918,33.753,117.08,6.80E+06
12434,10.623,33.114,116.03,7.80E+06
12435,10.81,31.964,113.32,8.86E+06
12436,10.28,31.726,112.38,7.60E+06
12437,7.5179,31.679,112.65,1.10E+07
12438,8.1728,31.957,114.76,9.83E+06
12439,9.4942,32.678,112.47,8.93E+06
12440,9.9677,32.902,114.42,7.61E+06
12441,-4.15,32.615,119.76,5.30E+06
12442,-4.8946,33.032,121.75,3.67E+06
12443,-6.1327,32.267,117.11,8.08E+06
12444,-6.6695,34.641,117.54,5.34E+06
12445,-8.5791,33.952,118.92,4.20E+06
12446,-6.8071,34.828,120.62,3.23E+06
12447,-8.772,34.296,120.39,3.08E+06
12448,-4.6018,34.444,117.64,4.72E+06
12449,-4.719,34.851,120.19,3.62E+06
12450,-8.1665,33.211,117.56,5.74E+06
12451,0.75,32.615,119.76,6.36E+06
12452,-2.4446,33.032,121.75,4.20E+06
12453,-0.55262,33.053,121.82,4.33E+06
12454,-3.6827,32.267,117.11,8.52E+06
12455,-0.51478,32.298,117.35,9.13E+06
12456,7.58E-02,34.653,120.17,4.37E+06
12457,-2.1518,34.444,117.64,5.31E+06
12458,-2.269,34.851,120.19,4.14E+06
12459,5.65,32.615,119.76,7.17E+06
12460,1.8974,33.053,121.82,4.84E+06
12461,3.8963,32.989,121.6,5.16E+06
12462,1.9352,32.298,117.35,9.51E+06
12463,4.7371,32.372,117.92,9.71E+06
12464,4.4874,34.225,117.89,6.23E+06
12465,2.5258,34.653,120.17,4.81E+06
12466,4.8985,34.678,120.31,4.66E+06
12467,10.55,33.158,122.16,4.28E+06
12468,8.1135,33.429,122.92,4.63E+06
12469,6.3463,32.989,121.6,5.45E+06
12470,7.1871,32.372,117.92,9.88E+06
12471,10.55,34.777,120.49,3.70E+06
12472,6.9374,34.225,117.89,6.20E+06
12473,7.3485,34.678,120.31,4.93E+06
12474,9.2777,33.956,118.63,6.25E+06
12475,8.982,33.317,117.58,6.94E+06
12476,-5.5,4.5833,73.135,9.53E+07
12477,-5.5,0.60117,72.676,8.09E+07
12478,-4.926,2.5711,72.787,6.75E+07
12479,-6.4357,1.7801,71.309,9.90E+07
12480,-5.541,3.7034,72.069,1.02E+08
12481,-5.5,8.5554,74.011,1.17E+08
12482,-5.4648,12.186,75.333,1.36E+08
12483,-4.926,10.527,74.541,1.15E+08
12484,-5.0407,11.298,74.885,1.22E+08
12485,-5.8569,10.195,73.081,1.52E+08
12486,-6.2743,12.067,73.952,1.48E+08
12487,-4.75,6.8479,72.236,1.43E+08
12488,-4.75,6.7457,72.773,9.05E+07
12489,-4.956,8.6022,73.904,9.81E+07
12490,-4.956,4.5858,73.018,6.80E+07
12491,-6.7075,6.3883,71.839,1.15E+08
12492,-5.8569,8.2437,72.51,1.32E+08
12493,-5.541,5.7146,72.372,1.03E+08
12494,-4.5315,18.412,79.021,9.92E+07
12495,-3.5772,20.456,80.743,7.42E+07
12496,-3.8695,18.859,79.254,1.25E+08
12497,-3.5904,19.751,80.038,1.00E+08
12498,-3.4924,20.085,80.361,9.14E+07
12499,-4.0047,20.141,78.835,8.20E+07
12500,-5.2376,20.815,79.764,7.35E+07
12501,-3.805,20.677,80.044,6.97E+07
12502,-5.1727,15.431,77,1.27E+08
12503,-4.1543,17.472,78.148,1.43E+08
12504,-4.3654,15.718,76.92,1.67E+08
12505,-4.4579,18.736,77.756,1.02E+08
12506,-6.4959,18.323,76.911,1.24E+08
12507,-5.6908,19.41,78.686,9.16E+07
12508,-4.6025,17.703,76.361,1.30E+08
12509,-6.0959,16.826,76.638,1.29E+08
12510,-4.4755,14.168,75.986,1.76E+08
12511,-4.9707,12.971,75.614,1.21E+08
12512,-6.2027,13.741,74.688,1.49E+08
12513,-6.3211,15.264,75.711,1.39E+08
12514,-2.7315,21.101,81.355,6.92E+07
12515,-2.7203,20.976,81.219,7.10E+07
12516,-2.9646,20.714,80.933,8.46E+07
12517,-3.9669,22.249,82.542,4.79E+07
12518,-4.7082,21.442,80.339,6.58E+07
12519,-3.1613,22.4,81.042,4.66E+07
12520,-3.2756,21.305,80.619,6.31E+07
12521,0,21.133,81.386,8.49E+07
12522,-2.5,21.029,81.274,7.21E+07
12523,-3.7463,22.301,82.598,4.78E+07
12524,-1.6862,22.972,83.361,4.69E+07
12525,-2.9407,22.455,81.096,4.72E+07
12526,-3.055,21.359,80.672,6.38E+07
12527,-1.2748,22.137,80.299,7.17E+07
12528,2.7315,21.101,81.355,1.22E+08
12529,2.5,21.029,81.274,1.14E+08
12530,0,21.029,81.274,8.49E+07
12531,2.9985,23.243,83.684,1.19E+08
12532,3.9057,22.221,82.511,1.52E+08
12533,0.8138,22.972,83.361,7.84E+07
12534,2.7906,23.432,81.326,1.07E+08
12535,2.6223,21.564,80.402,1.22E+08
12536,1.2252,22.137,80.299,9.59E+07
12537,3.7188,22.284,81.088,1.39E+08
12538,3.5752,20.455,80.742,1.41E+08
12539,6.2206,21.716,81.974,2.32E+08
12540,2.7203,20.976,81.219,1.18E+08
12541,4.1263,22.169,82.454,1.57E+08
12542,4.1794,21.507,80.316,1.57E+08
12543,2.8428,21.51,80.348,1.26E+08
12544,3.9394,22.229,81.034,1.44E+08
12545,4.5418,18.414,79.023,1.79E+08
12546,6.75,21.116,81.37,2.47E+08
12547,3.2573,20.38,80.617,1.33E+08
12548,3.8768,18.86,79.256,1.64E+08
12549,3.5891,19.749,80.036,1.47E+08
12550,5.6347,19.609,79.991,2.27E+08
12551,4.7088,20.88,79.741,1.72E+08
12552,3.3723,20.882,79.773,1.41E+08
12553,4.1163,20.147,78.896,1.62E+08
12554,5.4683,12.104,75.298,2.31E+08
12555,5.5,8.5554,74.011,1.98E+08
12556,7.5,10.916,74.81,3.15E+08
12557,7.5,9.0441,74.158,2.63E+08
12558,4.926,10.527,74.541,1.87E+08
12559,4.951,11.258,74.834,1.88E+08
12560,6.2776,10.223,73.475,2.41E+08
12561,6.1704,11.735,74.315,2.60E+08
12562,5.1821,15.354,76.955,2.18E+08
12563,7.4353,14.546,76.496,3.35E+08
12564,7.4353,12.521,75.483,3.18E+08
12565,4.4828,14.09,75.945,2.10E+08
12566,4.9093,12.844,75.528,1.94E+08
12567,5.735,15.242,75.347,2.44E+08
12568,6.1058,13.33,75.01,2.63E+08
12569,7.202,16.187,77.464,3.19E+08
12570,4.364,15.718,76.92,2.00E+08
12571,4.1555,17.472,78.148,1.86E+08
12572,6.0868,18.228,78.88,2.50E+08
12573,5.5017,16.884,76.314,2.27E+08
12574,5.9074,18.839,77.033,2.24E+08
12575,4.5683,18.742,77.818,1.86E+08
12576,5.5,4.5807,73.152,1.50E+08
12577,7.5,2.5619,72.901,1.38E+08
12578,5.5,0.60117,72.676,1.13E+08
12579,4.75,2.6802,71.054,1.66E+08
12580,4.75,4.7366,71.885,1.67E+08
12581,4.75,2.6228,72.153,1.13E+08
12582,4.9369,2.5733,72.761,1.15E+08
12583,5.8425,1.9648,71.302,1.36E+08
12584,6.9225,4.2671,71.433,1.66E+08
12585,7.5,4.5833,73.135,1.53E+08
12586,7.5,7.0818,73.62,2.35E+08
12587,4.75,6.7478,72.187,1.91E+08
12588,4.75,4.634,72.456,1.35E+08
12589,4.75,6.7457,72.773,1.51E+08
12590,4.9594,4.587,73.01,1.34E+08
12591,4.956,8.6022,73.904,1.55E+08
12592,6.9225,6.2782,71.736,1.85E+08
12593,6.2776,8.2712,72.903,2.10E+08
12594,9.5,5.0875,73.215,2.22E+08
12595,9.5,0.28837,72.628,1.02E+08
12596,7.5,0.60117,72.676,1.16E+08
12597,10.25,0.47604,71.812,8.53E+07
12598,10.074,2.5711,72.787,1.35E+08
12599,7.8425,1.9648,71.302,1.37E+08
12600,8.9225,4.2671,71.433,1.69E+08
12601,9.5,28.122,92.025,1.60E+08
12602,10.25,28.83,92.024,1.54E+08
12603,10.25,29.66,94.249,1.28E+08
12604,10.04,29.598,96.648,1.04E+08
12605,6.8491,28.569,93.269,1.13E+08
12606,10.095,27.912,91.207,1.77E+08
12607,8.6057,29.99,92.749,1.18E+08
12608,8.433,30.519,95.673,1.02E+08
12609,9.5,26.183,87.938,2.24E+08
12610,6.8491,27.65,90.873,1.46E+08
12611,6.4985,26.159,87.897,1.62E+08
12612,10.104,26.834,88.867,2.15E+08
12613,8.6057,29.069,90.357,1.56E+08
12614,8.6833,29.232,88.449,1.62E+08
12615,8.4458,27.748,88.142,1.77E+08
12616,9.5,23.838,84.427,2.96E+08
12617,6.4985,25.13,86.228,1.92E+08
12618,7.4057,24.237,84.953,2.22E+08
12619,10.1,25.874,87.166,2.44E+08
12620,8.378,25.724,84.475,2.23E+08
12621,8.4458,26.776,86.439,2.08E+08
12622,9.5,20.805,81.069,3.75E+08
12623,10.25,22.941,82.188,3.54E+08
12624,10.25,24.396,84.065,3.07E+08
12625,8.3847,20.964,81.222,3.20E+08
12626,7.4057,22.822,83.186,2.67E+08
12627,10.043,24.602,85.306,2.84E+08
12628,10.089,21.711,81.754,3.87E+08
12629,7.4588,22.188,81.022,2.65E+08
12630,8.378,24.339,82.687,2.70E+08
12631,8.6584,23.034,80.897,2.92E+08
12632,7.2188,22.91,81.74,2.54E+08
12633,9.5,17.29,78.224,4.25E+08
12634,10.25,19.582,78.991,4.38E+08
12635,8.3847,19.278,79.712,3.57E+08
12636,10.089,20.077,80.198,4.23E+08
12637,8.6584,21.395,79.338,3.30E+08
12638,9.5,13.408,75.903,4.24E+08
12639,10.25,15.78,76.336,4.68E+08
12640,10.25,17.728,77.696,4.53E+08
12641,8.3847,17.482,78.334,3.69E+08
12642,10.046,18.288,78.826,4.32E+08
12643,10.089,14.477,76.287,4.62E+08
12644,7.7997,16.103,75.819,3.45E+08
12645,8.2053,18.059,76.538,3.47E+08
12646,8.1704,14.19,75.481,3.63E+08
12647,9.5,9.4801,74.298,3.58E+08
12648,10.1,12.443,75.311,4.45E+08
12649,8.2776,10.65,73.64,3.28E+08
12650,8.1704,12.162,74.48,3.49E+08
12651,10.56,7.4024,73.246,2.96E+08
12652,10.514,9.6499,73.938,3.65E+08
12653,10.035,5.0855,73.115,2.19E+08
12654,10.048,10.609,74.583,3.88E+08
12655,8.9225,6.7748,71.854,2.53E+08
12656,8.2776,8.7678,73.022,2.76E+08
12657,-8.9998,-25,43,1.16E+08
12658,-11,-25,42.339,1.13E+08
12659,-9.0154,-25,42.764,1.34E+08
12660,-11,-24.842,42.419,1.01E+08
12661,-10.107,-24.087,42.72,8.94E+07
12662,-4.9995,-25,43,2.07E+08
12663,-1.5004,-25,43.067,2.65E+08
12664,-5.0207,-25,42.811,2.27E+08
12665,-2.8689,-25.365,41.13,2.77E+08
12666,-2.331,-24.918,45.222,2.12E+08
12667,-4.5271,-24.931,45.038,1.97E+08
12668,-3.1984,-23.496,43.933,1.90E+08
12669,-2.4387,-23.536,41.75,1.98E+08
12670,-4.8988,-23.338,42.807,1.72E+08
12671,-7.0153,-25,42.764,1.82E+08
12672,-6.5272,-24.931,45.038,1.53E+08
12673,-7.5672,-23.236,44.154,1.33E+08
12674,-8.1071,-24.087,42.72,1.28E+08
12675,-5.1985,-23.496,43.933,1.47E+08
12676,-6.899,-23.338,42.807,1.32E+08
12677,1.5004,-25,43.067,2.66E+08
12678,5.1771,-25,43,2.06E+08
12679,5.3966,-25,42.765,2.13E+08
12680,2.8689,-25.365,41.13,2.85E+08
12681,2.4153,-24.904,45.401,2.11E+08
12682,4.6463,-24.897,45.479,1.95E+08
12683,4.4861,-23.214,42.847,1.70E+08
12684,5.543,-23.16,44.368,1.42E+08
12685,2.4916,-23.362,43.996,1.87E+08
12686,-1.4355,-25.368,41.198,2.91E+08
12687,1.4355,-25.368,41.198,2.98E+08
12688,0.91558,-24.9,45.446,2.23E+08
12689,-0.83133,-24.914,45.266,2.25E+08
12690,2.9864,-23.214,42.891,1.81E+08
12691,-1.6987,-23.496,43.977,2.04E+08
12692,-0.93899,-23.536,41.795,2.12E+08
12693,0.99187,-23.362,44.041,1.99E+08
12694,0.6597,-24.498,40.501,2.24E+08
12695,9.5325,-25,43,9.62E+07
12696,11.019,-24.931,45.031,5.51E+07
12697,12.241,-24.887,43.21,4.68E+07
12698,12.071,-25,42.127,4.49E+07
12699,12.596,-24.886,42.353,5.81E+07
12700,9.7436,-25,42.699,1.01E+08
12701,10.408,-23.168,42.97,4.80E+07
12702,11.031,-24.033,43.796,5.03E+07
12703,8.9066,-24.93,45.05,1.07E+08
12704,7.5659,-25,42.699,1.65E+08
12705,6.824,-24.897,45.479,1.48E+08
12706,6.6638,-23.214,42.847,1.23E+08
12707,7.7207,-23.16,44.368,9.75E+07
12708,8.2299,-23.168,42.97,8.64E+07
12709,8.8531,-24.033,43.796,9.14E+07
12710,9.5567,-23.19,53.26,6.79E+07
12711,9.5,-21.371,57.302,6.47E+07
12712,10.25,-20.665,56.854,7.83E+07
12713,10.074,-22.281,55.202,7.45E+07
12714,10.123,-23.074,53.253,6.54E+07
12715,7.1357,-22.994,53.785,8.65E+07
12716,8.2447,-21.313,57.41,5.75E+07
12717,6.1901,-21.895,56.292,6.25E+07
12718,9.5522,-22.412,53.475,7.04E+07
12719,8.5569,-19.754,56.101,6.25E+07
12720,7.8091,-20.684,54.573,6.08E+07
12721,10.03,-24.36,49.163,6.56E+07
12722,10.581,-24.233,49.237,5.51E+07
12723,10.289,-23.725,51.259,6.23E+07
12724,8.0122,-24.266,49.594,1.01E+08
12725,7.2512,-23.693,51.76,9.07E+07
12726,9.6677,-23.143,51.463,6.85E+07
12727,9.914,-23.406,49.988,6.38E+07
12728,11.558,-24.809,45.194,4.82E+07
12729,11.186,-23.981,47.173,5.53E+07
12730,11.003,-24.593,47.211,5.06E+07
12731,8.3759,-24.658,47.517,9.99E+07
12732,10.849,-24.218,46.291,5.22E+07
12733,10.278,-23.842,47.92,5.87E+07
12734,10.405,-23.893,45.842,5.41E+07
12735,9.5,-4.1632,71.566,4.92E+07
12736,7.5,-3.5585,71.753,6.99E+07
12737,7.5,-1.6494,72.254,7.73E+07
12738,10.25,-1.7837,71.452,4.57E+07
12739,10.109,0.29202,72.497,9.29E+07
12740,10.097,-2.997,71.786,4.08E+07
12741,7.8425,-0.29493,70.942,1.03E+08
12742,8.3069,-2.4533,70.493,7.56E+07
12743,9.5,-8.4015,69.84,2.94E+07
12744,7.5,-7.5455,70.251,4.47E+07
12745,7.5,-5.7266,71.017,5.22E+07
12746,10.561,-6.1496,70.377,3.24E+07
12747,10.103,-7.3882,70.184,3.41E+07
12748,10.105,-5.1777,71.085,2.89E+07
12749,8.9596,-6.3864,69.333,3.95E+07
12750,8.3069,-4.6321,69.794,6.10E+07
12751,9.5,-12.328,67.49,3.44E+07
12752,7.5,-11.279,68.199,1.99E+07
12753,7.5,-9.5874,69.215,2.89E+07
12754,10.561,-10.184,68.363,5.25E+07
12755,10.103,-11.379,67.983,4.73E+07
12756,10.094,-9.4368,69.158,3.87E+07
12757,8.9596,-8.4335,68.311,3.18E+07
12758,8.727,-10.808,67.319,2.67E+07
12759,7.5546,-9.6458,67.981,3.48E+07
12760,9.5,-15.851,64.569,4.77E+07
12761,7.5,-13.154,66.884,8.17E+06
12762,7.3602,-14.278,65.986,6.43E+06
12763,10.561,-13.865,65.758,6.66E+07
12764,10.103,-14.988,65.201,5.76E+07
12765,10.094,-13.247,66.658,5.43E+07
12766,9.0064,-13.799,64.734,4.52E+07
12767,8.727,-12.676,65.997,2.96E+07
12768,9.5,-18.889,61.147,5.73E+07
12769,7.3602,-15.975,64.448,9.53E+06
12770,10.561,-17.107,62.624,7.29E+07
12771,7.1676,-17.186,63.194,2.15E+07
12772,8.2447,-18.815,61.244,4.82E+07
12773,10.125,-18.338,61.632,6.52E+07
12774,10.094,-16.633,63.607,6.24E+07
12775,9.0064,-15.444,63.143,4.95E+07
12776,8.8507,-16.761,61.787,5.37E+07
12777,10.25,-19.574,58.865,7.82E+07
12778,10.109,-21.25,57.255,7.23E+07
12779,8.2447,-20.137,59.375,5.28E+07
12780,10.109,-19.705,59.79,6.90E+07
12781,8.5569,-18.664,58.113,6.20E+07
12782,8.8507,-18.146,59.965,5.64E+07
12783,5.5,-10.474,68.701,6.40E+07
12784,5.4377,-13.298,66.774,4.87E+07
12785,4.926,-12.065,67.535,7.18E+07
12786,6.727,-11.668,66.763,2.55E+07
12787,5.5546,-10.506,67.425,6.51E+07
12788,5.5,-6.9678,70.509,7.83E+07
12789,4.75,-7.606,68.454,1.16E+08
12790,4.75,-8.4069,68.996,9.27E+07
12791,4.9003,-10.397,68.602,7.93E+07
12792,4.9098,-7.8208,69.989,8.64E+07
12793,6.9596,-7.604,68.772,4.84E+07
12794,5.5546,-8.8164,68.442,7.17E+07
12795,5.5,-3.2547,71.842,8.79E+07
12796,4.4393,-4.9848,70.823,9.65E+07
12797,4.8871,-3.7871,71.547,8.76E+07
12798,4.9098,-6.0186,70.773,9.03E+07
12799,6.9596,-5.7953,69.559,5.57E+07
12800,6.3069,-4.0411,70.02,8.65E+07
12801,4.75,-1.182,71.589,9.18E+07
12802,4.9003,0.60515,72.55,9.61E+07
12803,4.8988,-1.8804,72.071,9.06E+07
12804,5.8425,1.37E-02,71.012,1.21E+08
12805,6.3069,-2.1447,70.563,9.13E+07
12806,4.7777,-15.44,64.959,3.55E+07
12807,3.8871,-16.391,64.034,2.93E+07
12808,3.5255,-16.037,64.25,4.08E+07
12809,3.6752,-15.777,64.441,4.91E+07
12810,4.4176,-16.625,63.793,2.03E+07
12811,3.7313,-15.473,63.514,3.28E+07
12812,4.4184,-15.499,63.844,2.59E+07
12813,4.6102,-12.842,66.135,8.27E+07
12814,4.2837,-14.815,65.286,5.28E+07
12815,4.3908,-14.252,65.699,6.75E+07
12816,4.9286,-13.204,66.732,6.48E+07
12817,5.0279,-15.707,64.708,2.73E+07
12818,6.8667,-13.932,64.622,9.50E+06
12819,5.1527,-13.649,64.528,3.20E+07
12820,5.0287,-14.549,64.724,3.03E+07
12821,6.5872,-12.808,65.886,2.03E+07
12822,3.1778,-16.717,63.697,2.64E+07
12823,3.1267,-16.245,64.042,2.97E+07
12824,3.402,-16.115,64.173,4.05E+07
12825,4.3022,-16.7,63.714,1.87E+07
12826,3.6681,-17.32,63.045,1.38E+07
12827,3.6158,-15.55,63.436,3.27E+07
12828,0,-16.813,63.596,2.83E+07
12829,2.5,-16.434,63.887,3.08E+07
12830,3.0336,-17.487,62.857,1.19E+07
12831,1.138,-18.038,62.216,1.04E+07
12832,2.9813,-15.724,63.255,3.21E+07
12833,1.8875,-16.343,62.446,3.17E+07
12834,-3.1764,-16.715,63.7,4.05E+07
12835,0,-16.434,63.887,3.24E+07
12836,-2.5,-16.434,63.887,3.79E+07
12837,-3.2255,-17.565,62.769,2.34E+07
12838,-1.362,-18.038,62.216,1.73E+07
12839,-2.9222,-16.13,62.654,3.63E+07
12840,-0.6125,-16.343,62.446,3.51E+07
12841,-2.959,-16.122,63.356,4.08E+07
12842,-1.9793,-15.638,63.045,4.58E+07
12843,-3.8873,-16.39,64.035,4.91E+07
12844,-3.1265,-16.246,64.044,4.26E+07
12845,-3.4015,-16.114,64.174,5.71E+07
12846,-4.4502,-16.767,63.644,3.58E+07
12847,-3.86,-17.399,62.957,3.20E+07
12848,-3.5935,-15.948,63.538,4.77E+07
12849,-4.7773,-15.44,64.959,5.46E+07
12850,-3.6758,-15.776,64.441,6.75E+07
12851,-3.5256,-16.036,64.251,5.79E+07
12852,-4.5656,-16.692,63.723,3.76E+07
12853,-4.3085,-15.559,63.826,4.38E+07
12854,-3.709,-15.872,63.615,4.88E+07
12855,-5.4371,-13.298,66.773,6.61E+07
12856,-5.5,-10.27,68.823,7.41E+07
12857,-4.75,-10.097,67.979,9.24E+07
12858,-4.926,-12.065,67.535,8.99E+07
12859,-5.8253,-10.322,66.829,6.14E+07
12860,-5.1519,-12.384,65.625,5.75E+07
12861,-6.9761,-11.599,66.414,2.37E+07
12862,-5.2337,-11.227,66.158,6.70E+07
12863,-5.125,-11.916,67.32,8.44E+07
12864,-4.6102,-12.843,66.135,9.63E+07
12865,-4.3907,-14.252,65.699,8.69E+07
12866,-4.2838,-14.815,65.286,7.01E+07
12867,-4.9278,-13.206,66.73,8.34E+07
12868,-5.1758,-15.777,64.64,4.32E+07
12869,-6.8619,-14.569,64,1.06E+07
12870,-5.0121,-13.524,64.748,5.23E+07
12871,-4.9187,-14.608,64.706,4.77E+07
12872,-6.8363,-12.74,65.537,1.99E+07
12873,-4.9852,-13.057,66.443,7.81E+07
12874,-5.5,-3.2547,71.842,7.04E+07
12875,-4.75,-1.182,71.589,6.25E+07
12876,-4.9003,0.60515,72.55,5.58E+07
12877,-4.9098,-2.2651,71.982,6.67E+07
12878,-6.4357,-0.17104,71.02,8.60E+07
12879,-6.1032,-2.793,70.355,6.88E+07
12880,-5.5,-6.7494,70.603,7.38E+07
12881,-4.4393,-4.9848,70.823,7.89E+07
12882,-4.9098,-4.1549,71.442,7.04E+07
12883,-6.1032,-4.6893,69.812,6.82E+07
12884,-4.75,-8.1947,69.104,9.39E+07
12885,-4.4042,-6.6035,70.149,8.57E+07
12886,-4.75,-7.3938,68.562,1.13E+08
12887,-4.8934,-10.191,68.721,9.15E+07
12888,-4.898,-7.9637,69.915,8.65E+07
12889,-5.8253,-8.4204,67.954,6.37E+07
12890,-6.1032,-6.2859,69.133,6.72E+07
12891,-7.095,-7.8494,68.869,3.90E+07
12892,10.155,50.549,72.782,5.70E+07
12893,10.74,50.389,71.733,5.36E+07
12894,10.248,50.535,71.275,4.88E+07
12895,9.5415,50.707,73.311,5.69E+07
12896,10.332,49.964,73.413,6.42E+07
12897,7.2474,50.62,72.652,6.26E+07
12898,8.8816,50.602,70.188,5.31E+07
12899,9.5319,48.289,73.127,6.81E+07
12900,9.9623,49.714,71.916,6.03E+07
12901,9.9018,50.277,73.404,5.69E+07
12902,10.896,49.923,73.047,7.48E+07
12903,11.392,49.731,71.952,7.05E+07
12904,11.03,49.385,73.664,8.71E+07
12905,10.861,49.908,73.585,7.42E+07
12906,11.232,48.56,73.597,1.02E+08
12907,10.247,47.711,73.38,9.01E+07
12908,10.677,49.136,72.169,8.01E+07
12909,11.122,50.123,71.83,5.66E+07
12910,10.071,50.621,73.444,5.83E+07
12911,10.795,49.809,73.548,7.09E+07
12912,10.551,50.336,73.483,5.91E+07
12913,9.995,48.135,73.262,7.43E+07
12914,10.425,49.559,72.051,6.48E+07
12915,10.365,50.122,73.539,6.13E+07
12916,12.378,50.623,69.287,5.44E+07
12917,12.009,50.845,68.871,5.49E+07
12918,13,50.166,69.907,6.47E+07
12919,13,51.831,65.512,4.96E+07
12920,10.55,51.187,67.795,5.89E+07
12921,13,49.137,67.701,6.25E+07
12922,13,49.814,65.435,4.21E+07
12923,11.17,49.909,66.466,4.73E+07
12924,11.683,50.072,68.18,5.53E+07
12925,11.464,50.453,70.446,5.60E+07
12926,12.366,49.377,71.257,7.08E+07
12927,11.646,48.921,72.465,8.38E+07
12928,12.392,48.586,69.204,6.43E+07
12929,11.023,49.446,70.991,6.53E+07
12930,11.075,49.522,69.683,5.97E+07
12931,9.5848,50.841,68.892,6.17E+07
12932,10.665,49.715,70.601,5.88E+07
12933,10.718,49.79,69.294,5.65E+07
12934,10.074,50.682,73.994,5.83E+07
12935,9.5,50.998,75.522,5.57E+07
12936,7.1658,50.708,73.315,6.27E+07
12937,7.7162,51.024,75.717,6.02E+07
12938,9.4503,48.377,73.791,6.93E+07
12939,9.8201,50.365,74.068,6.02E+07
12940,10.859,49.866,74.101,7.21E+07
12941,11,49.591,76.328,6.16E+07
12942,10.561,50.563,75.579,6.44E+07
12943,11,47.426,75.719,8.34E+07
12944,11.104,48.465,74.088,9.91E+07
12945,10.2,47.633,73.889,8.91E+07
12946,10.57,49.621,74.166,7.39E+07
12947,10.074,50.885,75.537,5.62E+07
12948,10.35,50.147,74.097,6.26E+07
12949,10.074,54.65,104.13,3.53E+07
12950,9.5,54.48,101.97,3.50E+07
12951,10.064,54.72,104.59,3.66E+07
12952,7.5208,54.533,102.37,5.04E+07
12953,8.7815,52.905,103.42,4.20E+07
12954,8.9857,53.806,104.89,3.97E+07
12955,9.6829,54.217,103.84,3.66E+07
12956,10.859,53.834,104.24,3.64E+07
12957,11,52.992,102.16,3.87E+07
12958,11.022,53.448,104.71,4.27E+07
12959,10.785,53.903,104.7,3.68E+07
12960,11,51.458,103.49,5.76E+07
12961,11.222,52.646,105.02,4.23E+07
12962,9.5315,52.161,103.51,4.53E+07
12963,9.7357,53.063,104.99,4.01E+07
12964,10.433,53.474,103.93,3.79E+07
12965,10.886,53.562,102.09,3.15E+07
12966,10.074,54.366,101.98,2.89E+07
12967,10.857,53.979,104.65,3.52E+07
12968,10.548,54.428,104.63,3.27E+07
12969,10.213,53.999,103.86,3.30E+07
12970,11,52.426,97.855,3.26E+07
12971,10.561,53.761,99.87,2.66E+07
12972,11,51.129,101.46,5.22E+07
12973,11,50.356,99.45,5.21E+07
12974,8.7507,51.446,99.192,3.73E+07
12975,9.5315,51.878,101.36,4.00E+07
12976,10.433,53.19,101.78,3.27E+07
12977,11,51.859,93.55,2.80E+07
12978,10.561,53.194,95.564,2.26E+07
12979,10.561,53.477,97.717,2.53E+07
12980,11,49.022,94.998,5.35E+07
12981,11,50.073,97.298,5.08E+07
12982,8.7507,51.163,97.039,3.59E+07
12983,9.145,51.897,95.475,3.07E+07
12984,9.5987,50.416,95.594,3.88E+07
12985,11,51.292,89.244,2.09E+07
12986,10.561,52.627,91.259,1.85E+07
12987,10.561,52.91,93.411,2.03E+07
12988,11,48.738,92.845,5.03E+07
12989,11,49.322,90.717,4.12E+07
12990,8.8835,49.845,91.658,3.25E+07
12991,9.145,51.614,93.322,2.82E+07
12992,9.0941,50.915,90.078,2.42E+07
12993,9.5987,50.132,93.441,3.58E+07
12994,11,50.725,84.939,1.63E+07
12995,10.561,52.06,86.953,1.95E+07
12996,10.561,52.343,89.106,1.65E+07
12997,11,48.288,86.884,3.43E+07
12998,11,49.039,88.565,3.66E+07
12999,9.0941,50.631,87.925,2.18E+07
13000,9.5158,49.959,86.154,2.13E+07
13001,11,50.158,80.633,2.86E+07
13002,10.561,51.45,82.318,3.12E+07
13003,10.561,51.777,84.8,2.32E+07
13004,11,48.005,84.731,2.89E+07
13005,11,47.944,82.299,2.43E+07
13006,9.1523,49.238,81.512,2.48E+07
13007,9.5158,49.675,84.001,2.10E+07
13008,10.561,50.846,77.732,4.66E+07
13009,10.561,51.166,80.165,4.07E+07
13010,11,47.6,77.715,6.22E+07
13011,11,47.661,80.147,2.95E+07
13012,10.2,47.917,76.042,6.54E+07
13013,9.1523,48.955,79.36,3.48E+07
13014,9.5,51.522,79.497,4.83E+07
13015,7.7162,51.227,77.26,5.67E+07
13016,9.4503,48.58,75.334,6.66E+07
13017,8.4023,49.618,78.652,4.32E+07
13018,9.8201,50.568,75.61,5.73E+07
13019,9.5,52.169,84.413,3.43E+07
13020,6.3333,51.838,81.901,3.91E+07
13021,7.7162,51.547,79.693,4.82E+07
13022,8.4023,49.938,81.084,3.68E+07
13023,8.7658,50.375,83.573,3.10E+07
13024,9.5,52.779,89.049,2.28E+07
13025,6.3333,52.165,84.384,2.91E+07
13026,5.8524,52.497,86.909,3.00E+07
13027,7.125,52.803,89.228,3.44E+07
13028,8.3441,51.375,87.827,2.54E+07
13029,8.7658,50.702,86.056,2.44E+07
13030,9.5,53.346,93.354,2.35E+07
13031,7.125,53.086,91.381,3.32E+07
13032,8.1335,50.588,91.56,2.78E+07
13033,8.395,52.357,93.224,2.81E+07
13034,8.3441,51.658,89.98,2.31E+07
13035,9.5,53.913,97.66,2.83E+07
13036,6.0624,53.728,96.257,4.59E+07
13037,7.125,53.37,93.534,3.64E+07
13038,7.5208,53.967,98.069,4.46E+07
13039,8.395,52.641,95.377,3.15E+07
13040,7.5208,54.25,100.22,4.57E+07
13041,8.0007,52.19,99.094,3.58E+07
13042,8.7815,52.621,101.26,3.69E+07
13043,8.395,52.924,97.53,3.27E+07
13044,9.6829,53.934,101.68,3.07E+07
13045,10.878,54.107,105.08,3.58E+07
13046,11.325,54.153,106.12,3.10E+07
13047,11.361,52.842,105.38,4.13E+07
13048,10.652,53.612,106.13,3.41E+07
13049,9.7697,53.235,105.38,3.91E+07
13050,11.063,54.587,106.12,2.71E+07
13051,10.404,54.066,106.13,3.03E+07
13052,9.521,53.69,105.38,3.69E+07
13053,10.218,54.1,104.32,3.39E+07
13054,12.296,54.123,107.06,2.25E+07
13055,11.796,53.469,106.27,3.11E+07
13056,12.339,52.71,108.38,2.92E+07
13057,10.761,53.714,108.6,2.38E+07
13058,10.957,54.179,107.12,2.51E+07
13059,11,26.238,53.605,7.66E+08
13060,11.011,29.425,50.747,6.16E+08
13061,11,25.432,52.104,5.92E+08
13062,11.171,28.457,52.34,6.27E+08
13063,8.5068,28.034,49.628,4.09E+08
13064,9.4782,26.587,51.678,5.11E+08
13065,10.543,28.405,54.281,6.35E+08
13066,9.957,29.974,51.315,4.75E+08
13067,9.1319,28.604,52.593,4.91E+08
13068,11,43.057,77.835,8.76E+07
13069,11.135,46.482,75.478,9.83E+07
13070,11.25,44.098,76.438,1.01E+08
13071,11,45.385,79.381,5.45E+07
13072,9.0628,44.432,77.658,6.92E+07
13073,10.2,45.642,75.276,8.97E+07
13074,9.1523,46.679,78.594,5.73E+07
13075,10.168,42.805,75.955,1.01E+08
13076,11,38.248,78.497,1.33E+08
13077,11.181,39.277,77.651,1.29E+08
13078,11.265,41.807,77.139,1.06E+08
13079,11,40.682,81.408,8.97E+07
13080,11,43.062,80.084,7.03E+07
13081,11,38.294,81.035,1.16E+08
13082,9.0628,42.109,78.361,8.06E+07
13083,10.168,40.482,76.658,1.10E+08
13084,9.7576,40.556,79.486,9.18E+07
13085,11,33.47,77.638,2.06E+08
13086,11.168,36.86,77.598,1.59E+08
13087,11,35.868,80.985,1.55E+08
13088,11,34.096,79.381,1.86E+08
13089,8.9303,36.35,78.991,1.34E+08
13090,10.168,38.055,76.608,1.31E+08
13091,10.815,35.389,76.156,1.85E+08
13092,8.9328,34.281,77.583,1.56E+08
13093,9.7576,38.13,79.436,1.24E+08
13094,11,29.192,75.343,3.33E+08
13095,11.959,31.497,75.609,2.20E+08
13096,11.31,34.559,76.863,1.97E+08
13097,11.14,29.884,74.941,3.16E+08
13098,11,29.583,78.199,2.60E+08
13099,11,31.804,78.583,2.24E+08
13100,9.6455,30.625,75.092,2.43E+08
13101,9.2299,31.098,79.152,1.93E+08
13102,10.815,33.097,75.358,2.24E+08
13103,8.9328,31.989,76.785,1.94E+08
13104,8.448,29.872,77.725,1.93E+08
13105,9.6931,29.647,76.334,2.38E+08
13106,11,25.834,71.838,5.14E+08
13107,11.141,28.114,73.423,4.07E+08
13108,11.249,26.996,71.795,4.30E+08
13109,11,27.65,76.731,3.38E+08
13110,11,25.545,74.895,3.95E+08
13111,9.6455,28.692,73.624,3.31E+08
13112,9.5787,27.628,71.952,3.77E+08
13113,8.7852,26.541,74.001,3.15E+08
13114,9.6931,27.714,74.865,3.23E+08
13115,10.724,28.487,72.102,3.87E+08
13116,11,23.724,67.466,7.04E+08
13117,11.215,24.585,67.197,5.99E+08
13118,11.209,25.643,69.813,5.24E+08
13119,11,22.118,69.334,5.37E+08
13120,11,24.161,72.901,4.81E+08
13121,11,22.297,71.719,5.12E+08
13122,9.0287,23.007,70.263,4.51E+08
13123,9.3425,25.302,67.919,5.21E+08
13124,9.5787,26.244,69.958,4.69E+08
13125,9.2792,22.308,68.175,4.91E+08
13126,8.7852,25.157,72.007,4.05E+08
13127,10.792,26.109,68.023,5.98E+08
13128,11,23.071,62.656,8.42E+08
13129,11.215,24.1,64.956,7.00E+08
13130,11.398,24.266,63.215,6.15E+08
13131,11,21.418,67.01,6.33E+08
13132,11,20.55,64.688,6.35E+08
13133,11,21.544,62.925,6.79E+08
13134,9.0391,22.625,63.663,6.09E+08
13135,9.3425,24.603,65.595,6.18E+08
13136,9.2792,21.609,65.851,5.90E+08
13137,10.169,24.895,63.271,7.38E+08
13138,11,23.937,57.88,8.75E+08
13139,11.171,24.286,59.555,7.57E+08
13140,11.341,24.344,60.861,6.55E+08
13141,11,22.019,58.408,7.07E+08
13142,11,21.598,60.498,7.21E+08
13143,9.0391,22.679,61.236,6.49E+08
13144,9.2752,20.82,59.25,6.28E+08
13145,9.4108,23.578,58.397,6.58E+08
13146,10.169,24.949,60.844,7.78E+08
13147,11,23.959,54.025,6.92E+08
13148,11.171,26.913,54.055,7.36E+08
13149,11.188,25.081,57.272,7.53E+08
13150,11,22.821,56.117,7.01E+08
13151,9.4782,25.116,53.608,6.18E+08
13152,10.543,26.934,56.212,7.42E+08
13153,9.4108,24.38,56.107,6.56E+08
13154,11.727,31.638,50.884,3.79E+08
13155,11.361,33.004,49.767,4.36E+08
13156,11.256,29.935,51.323,5.95E+08
13157,9.9751,31.585,50.351,4.31E+08
13158,10.803,33.519,50.984,4.08E+08
13159,13,47.116,73.448,9.44E+07
13160,12.122,48.124,72.82,9.55E+07
13161,13,45.699,71.788,1.35E+08
13162,13,47.941,69.709,7.53E+07
13163,11.578,47.181,70.975,9.74E+07
13164,11.631,48.801,71.496,7.68E+07
13165,13,43.04,75.737,1.24E+08
13166,12.124,46.337,74.286,1.09E+08
13167,12.422,44.076,75.418,1.12E+08
13168,13,43.891,73.268,1.48E+08
13169,11.578,45.372,72.455,1.05E+08
13170,11.2,45.568,74.187,1.01E+08
13171,11.79,43.651,74.018,1.27E+08
13172,13,38.429,76.499,1.65E+08
13173,12.272,39.321,76.616,1.48E+08
13174,12.422,41.843,76.185,1.30E+08
13175,13,41.686,74.042,1.49E+08
13176,13,39.502,74.946,1.87E+08
13177,11.168,40.527,75.64,1.33E+08
13178,11.79,41.446,74.792,1.37E+08
13179,13,33.834,75.643,1.93E+08
13180,12.256,37,76.553,1.74E+08
13181,13,35.257,73.998,2.67E+08
13182,13,37.165,74.922,1.98E+08
13183,11.815,35.523,75.164,1.98E+08
13184,13,29.806,73.271,1.93E+08
13185,12.244,34.658,76.077,1.69E+08
13186,12.205,30.312,73.889,2.97E+08
13187,13,33.068,73.179,2.56E+08
13188,10.645,30.863,74.079,2.15E+08
13189,10.827,32.209,72.823,2.29E+08
13190,11.815,33.335,74.344,1.95E+08
13191,11.724,30.658,72.557,2.70E+08
13192,13,26.829,69.668,1.61E+08
13193,12.214,28.564,72.303,2.84E+08
13194,12.354,27.394,70.767,3.13E+08
13195,13,31.29,71.662,2.32E+08
13196,13,29.08,69.538,3.33E+08
13197,11.724,28.88,71.04,2.50E+08
13198,13,25.258,65.265,1.40E+08
13199,12.375,25.351,66.209,3.78E+08
13200,12.354,26.218,68.715,2.96E+08
13201,13,27.926,67.506,3.09E+08
13202,13,27.272,65.249,3.83E+08
13203,11.792,26.731,66.923,3.46E+08
13204,13,25.284,60.591,1.79E+08
13205,12.375,24.995,63.872,3.58E+08
13206,12.617,25.056,62.158,3.11E+08
13207,13,26.88,62.945,3.71E+08
13208,13,26.901,56.206,2.02E+08
13209,12.256,25.643,58.63,4.19E+08
13210,12.617,25.406,59.832,3.44E+08
13211,13,27.963,58.391,4.37E+08
13212,13,27.297,60.646,4.04E+08
13213,13,29.917,52.635,1.98E+08
13214,12.286,28.679,53.616,4.08E+08
13215,12.254,26.597,56.451,4.33E+08
13216,13,31.368,54.263,2.94E+08
13217,13,29.139,56.372,4.43E+08
13218,11.543,28.601,55.531,3.94E+08
13219,11.556,30.114,54.556,3.24E+08
13220,13,33.97,50.307,2.10E+08
13221,12.465,33.284,50.497,2.56E+08
13222,12.278,30.442,52.051,4.00E+08
13223,13,33.163,52.766,2.99E+08
13224,11.556,31.908,53.059,3.15E+08
13225,11.785,33.898,51.701,2.16E+08
13226,12.465,35.528,49.772,2.47E+08
13227,13,35.36,51.97,3.02E+08
13228,13,37.284,51.064,2.33E+08
13229,11.785,36.096,50.905,2.17E+08
13230,11,34.195,107.96,5.83E+07
13231,11,32.577,107.98,3.82E+07
13232,11.114,32.637,111.52,2.18E+07
13233,10.886,32.253,109.91,2.47E+07
13234,10.881,32.27,110.57,2.22E+07
13235,11.316,34.863,108.84,4.31E+07
13236,9.7008,33.433,109.12,3.16E+07
13237,9.9585,33.197,110.67,2.48E+07
13238,11,37.703,104.91,8.87E+07
13239,11,33.839,104.35,6.93E+07
13240,11,34.083,106.21,6.15E+07
13241,11.296,38.05,105.93,7.05E+07
13242,11.251,36.368,107.12,6.62E+07
13243,11,36.325,103.2,8.93E+07
13244,9.2212,35.04,104.73,6.59E+07
13245,9.7008,34.939,107.35,5.52E+07
13246,9.7611,37.319,106.47,6.76E+07
13247,11,41.957,103.04,9.39E+07
13248,11.233,39.996,104.73,7.72E+07
13249,11.261,41.761,104.12,7.72E+07
13250,11,39.993,100.5,9.65E+07
13251,11,38.288,101.95,9.60E+07
13252,9.2212,37.003,103.49,7.21E+07
13253,9.528,41.629,104.31,7.51E+07
13254,9.7611,39.282,105.22,7.46E+07
13255,8.5867,39.497,102.08,7.64E+07
13256,9.4533,41.565,102.27,7.88E+07
13257,11,46.912,102.53,8.16E+07
13258,11.196,46.3,103.37,7.67E+07
13259,11.215,43.983,103.54,7.60E+07
13260,11,42.237,99.894,9.52E+07
13261,11,46.125,100.75,8.17E+07
13262,9.528,43.872,103.71,7.44E+07
13263,9.2331,45.525,101.94,7.23E+07
13264,9.4533,43.809,101.66,7.80E+07
13265,11.266,50.81,104.32,5.57E+07
13266,11.201,48.83,103.65,6.70E+07
13267,11,48.777,100.9,7.04E+07
13268,9.5315,50.298,102.81,5.76E+07
13269,10.153,49.091,105.26,5.73E+07
13270,9.2331,48.177,102.1,6.20E+07
13271,9.7357,51.2,104.29,5.18E+07
13272,8.5399,48.604,103.53,5.74E+07
13273,11,31.599,100.55,7.39E+07
13274,11,30.955,96.347,1.08E+08
13275,10.886,30.785,98.765,8.16E+07
13276,11,33.598,96.43,9.87E+07
13277,11,34.085,99.39,8.92E+07
13278,9.183,31.726,97.79,8.24E+07
13279,9.2212,32.8,100.93,6.79E+07
13280,8.8516,33.355,98.258,7.71E+07
13281,11,32.088,104.26,5.21E+07
13282,11,34.33,101.25,7.75E+07
13283,9.2212,33.045,102.79,5.56E+07
13284,10.886,32.008,108.06,2.83E+07
13285,9.2212,33.289,104.65,4.68E+07
13286,9.7008,33.188,107.27,3.53E+07
13287,11,5.0438,71.688,2.07E+08
13288,11,0.52395,71.146,7.90E+07
13289,10.886,2.6371,71.978,1.30E+08
13290,11,4.9197,69.467,1.68E+08
13291,11,2.1249,68.665,9.37E+07
13292,8.5925,2.0258,70.554,1.20E+08
13293,9.6725,4.328,70.686,1.57E+08
13294,11,9.6666,72.782,3.57E+08
13295,10.886,4.9541,72.255,2.07E+08
13296,11,7.2657,69.838,2.49E+08
13297,11,9.7201,70.714,3.19E+08
13298,9.6725,6.674,71.057,2.35E+08
13299,9.0276,8.667,72.224,2.57E+08
13300,11,14.072,74.558,4.61E+08
13301,10.892,12.751,74.555,4.55E+08
13302,11,11.984,71.433,3.91E+08
13303,11,13.947,72.554,4.37E+08
13304,9.1919,13.235,71.535,3.54E+08
13305,9.0276,10.931,72.944,3.30E+08
13306,8.9204,12.442,73.784,3.52E+08
13307,11,18.161,76.977,4.77E+08
13308,10.892,14.878,75.606,4.88E+08
13309,11,16.077,73.605,4.67E+08
13310,11,18.074,74.696,4.74E+08
13311,8.5497,16.485,75.173,3.65E+08
13312,8.9553,18.44,75.892,3.70E+08
13313,11,21.839,79.983,4.13E+08
13314,9.1347,19.752,79.132,3.80E+08
13315,10.854,20.588,79.576,4.47E+08
13316,10.818,16.838,76.941,4.69E+08
13317,11,21.886,77.239,4.29E+08
13318,11,20.022,76.056,4.53E+08
13319,8.9553,20.388,77.252,3.55E+08
13320,9.4084,21.87,78.757,3.57E+08
13321,11,25.024,83.508,3.18E+08
13322,10.892,22.297,81.223,4.00E+08
13323,11,25.711,80.712,3.27E+08
13324,11,23.607,78.876,3.71E+08
13325,9.128,24.895,82.184,2.83E+08
13326,9.4084,23.59,80.394,3.06E+08
13327,11,27.642,87.472,2.30E+08
13328,10.87,26.563,86.714,2.51E+08
13329,10.818,23.772,83.08,3.51E+08
13330,11,28.511,85.037,2.41E+08
13331,11,27.166,82.589,2.73E+08
13332,9.128,26.35,84.062,2.35E+08
13333,9.4333,28.886,86.333,2.06E+08
13334,9.1958,27.402,86.026,2.18E+08
13335,11,29.634,91.784,1.60E+08
13336,10.892,27.71,88.791,2.12E+08
13337,11,29.667,87.112,1.96E+08
13338,11,31.433,89.673,1.64E+08
13339,9.3557,29.879,90.316,1.54E+08
13340,9.4333,30.042,88.408,1.63E+08
13341,10.833,30.317,96.44,1.03E+08
13342,10.818,28.566,91.003,1.82E+08
13343,11,32.264,91.898,1.32E+08
13344,11,33.111,94.105,1.21E+08
13345,9.3557,30.71,92.541,1.24E+08
13346,9.183,31.239,95.465,1.05E+08
13347,11,-20.053,56.587,1.01E+08
13348,11,-18.566,54.663,1.32E+08
13349,10.886,-21.54,54.871,9.33E+07
13350,11.054,-21.78,52.841,9.86E+07
13351,11.105,-19.835,52.17,1.36E+08
13352,10.302,-21.727,53.169,8.58E+07
13353,9.3069,-19.07,55.795,8.35E+07
13354,8.5591,-19.999,54.267,7.54E+07
13355,11,-17.695,60.239,9.59E+07
13356,11,-17.53,56.565,1.30E+08
13357,10.917,-20.506,56.786,8.97E+07
13358,10.903,-19.004,59.328,8.79E+07
13359,11,-17.27,58.316,1.16E+08
13360,9.3069,-18.033,57.706,8.11E+07
13361,9.6007,-17.515,59.559,7.59E+07
13362,11,-14.809,63.491,9.28E+07
13363,10.9,-17.702,61.106,8.55E+07
13364,10.894,-16.037,63.039,8.38E+07
13365,11,-14.129,61.213,1.15E+08
13366,11,-15.955,60.047,1.15E+08
13367,9.7564,-14.883,62.645,7.15E+07
13368,9.6007,-16.201,61.289,7.47E+07
13369,11,-11.462,66.265,8.42E+07
13370,10.894,-14.448,64.585,8.17E+07
13371,10.894,-12.745,66.006,7.91E+07
13372,11,-12.566,62.724,1.14E+08
13373,11,-10.924,64.472,9.87E+07
13374,9.7564,-13.32,64.156,7.00E+07
13375,9.477,-12.197,65.42,5.46E+07
13376,11,-7.7314,68.498,6.22E+07
13377,10.894,-10.938,67.292,7.18E+07
13378,10.894,-9.0389,68.437,6.25E+07
13379,11,-9.1492,65.727,9.15E+07
13380,9.7096,-8.0483,67.667,4.49E+07
13381,9.477,-10.423,66.675,4.79E+07
13382,11,-3.705,70.138,2.83E+07
13383,10.894,-7.0578,69.434,4.78E+07
13384,10.895,-4.8884,70.316,3.47E+07
13385,11,-4.8396,66.471,6.43E+07
13386,11,-7.2044,66.698,7.67E+07
13387,9.7096,-6.1035,68.638,3.29E+07
13388,9.0569,-4.3492,69.099,3.91E+07
13389,10.917,0.4865,71.64,8.13E+07
13390,10.902,-2.7894,70.968,2.61E+07
13391,11,-2.7697,67.135,4.33E+07
13392,11,-2.19E-02,68.323,4.69E+07
13393,8.5925,-0.12099,70.213,8.10E+07
13394,9.0569,-2.2794,69.763,5.27E+07
13395,11,20.564,52.674,4.60E+08
13396,11.05,21.092,50.89,4.31E+08
13397,11,21.86,54.49,5.45E+08
13398,9.275,21.834,51.574,4.08E+08
13399,9.4782,24.155,51.981,4.36E+08
13400,9.4108,23.42,54.479,4.70E+08
13401,11,15.689,53.171,2.97E+08
13402,11.061,16.64,51.174,2.87E+08
13403,11.05,18.668,51.148,3.55E+08
13404,11,17.089,55.788,3.83E+08
13405,11,19.425,54.757,4.69E+08
13406,9.275,19.399,51.841,3.34E+08
13407,9.2752,18.226,55.599,3.64E+08
13408,9.4108,20.984,54.746,3.97E+08
13409,9.3734,17.49,52.582,3.15E+08
13410,9.1781,15.76,54.509,2.97E+08
13411,11,10.808,53.597,1.37E+08
13412,11.082,11.885,51.298,1.10E+08
13413,11.061,14.214,51.399,2.00E+08
13414,11,14.649,56.019,2.96E+08
13415,11,11.884,55.898,2.05E+08
13416,8.4782,13.503,51.374,2.07E+08
13417,9.278,11.606,52.83,1.75E+08
13418,9.3734,15.051,52.813,2.35E+08
13419,9.1781,13.32,54.74,2.20E+08
13420,11,5.9202,53.952,7.36E+07
13421,11.134,6.6338,51.09,1.30E+08
13422,11.083,9.4582,51.488,5.70E+07
13423,11,9.4421,56.093,1.34E+08
13424,11,7.1985,55.791,7.66E+07
13425,9.278,9.1635,53.025,1.31E+08
13426,9.2475,6.2142,52.416,1.34E+08
13427,9.0745,7.3197,54.69,1.23E+08
13428,11,1.028,54.235,1.41E+08
13429,11.134,4.2086,51.243,1.78E+08
13430,11.052,2.1729,52.416,1.75E+08
13431,11,2.6272,56.872,7.93E+07
13432,11,4.7535,55.951,6.89E+07
13433,8.9263,2.201,55.323,1.23E+08
13434,9.2475,3.7692,52.575,1.56E+08
13435,9.0745,4.8747,54.85,1.26E+08
13436,9.2319,1.2961,52.539,1.52E+08
13437,11,-3.8677,54.448,1.91E+08
13438,11.094,-2.712,52.051,2.36E+08
13439,11.052,-0.2616,52.538,2.08E+08
13440,11,0.18018,56.996,1.10E+08
13441,11,-2.331,56.529,1.50E+08
13442,8.9644,-3.565,55.896,1.39E+08
13443,8.9263,-0.24599,55.447,1.46E+08
13444,9.0521,-3.7003,52.844,1.64E+08
13445,9.2319,-1.1509,52.663,1.80E+08
13446,8.2791,-1.7703,54.259,1.60E+08
13447,11,-8.766,54.59,2.01E+08
13448,11.094,-5.1438,52.137,2.51E+08
13449,11.096,-7.6514,52.186,2.40E+08
13450,11,-6.9447,56.809,1.79E+08
13451,11,-4.7795,56.617,1.67E+08
13452,8.9644,-6.0136,55.985,1.52E+08
13453,9.0521,-6.1489,52.933,1.77E+08
13454,8.7068,-7.8542,54.706,1.54E+08
13455,9.508,-8.132,52.712,1.78E+08
13456,11,-13.666,54.662,1.79E+08
13457,11.103,-12.536,52.186,2.14E+08
13458,11.096,-10.084,52.238,2.34E+08
13459,11,-9.3943,56.863,1.73E+08
13460,11,-11.58,57.57,1.65E+08
13461,11,-13.406,56.404,1.66E+08
13462,9.3328,-12.88,53.496,1.51E+08
13463,9.3069,-14.17,55.794,1.29E+08
13464,9.0289,-11.273,56.553,1.36E+08
13465,8.7068,-10.304,54.759,1.48E+08
13466,9.508,-10.582,52.766,1.72E+08
13467,11.103,-14.969,52.203,1.98E+08
13468,11.105,-17.402,52.186,1.66E+08
13469,11,-15.857,56.423,1.49E+08
13470,9.3328,-15.33,53.514,1.35E+08
13471,10.302,-19.277,53.186,1.12E+08
13472,9.3069,-16.62,55.812,1.13E+08
13473,8.5591,-17.549,54.284,1.03E+08
13474,13,33.377,113.21,1.27E+07
13475,12.097,32.789,114.31,8.79E+06
13476,12.552,32.605,115.93,7.81E+06
13477,13,34.902,114.98,1.26E+07
13478,11.728,34.03,116.42,6.16E+06
13479,11.432,33.391,115.37,7.85E+06
13480,13,35.599,109.39,2.64E+07
13481,12.105,33.549,112.26,1.45E+07
13482,12.449,35.458,109.44,3.36E+07
13483,13,35.685,112.91,1.69E+07
13484,11.237,36.032,111.65,2.45E+07
13485,13,38.935,106.5,3.44E+07
13486,12.413,38.607,106.6,4.76E+07
13487,12.449,37.001,107.83,4.26E+07
13488,13,37.094,111.21,2.51E+07
13489,13,39.197,108.67,4.35E+07
13490,11.237,37.441,109.95,3.35E+07
13491,13,43.029,104.83,2.84E+07
13492,12.413,40.573,105.54,4.80E+07
13493,12.372,42.289,104.91,4.91E+07
13494,13,41.08,107.52,4.23E+07
13495,13,43.263,106.82,4.09E+07
13496,11.357,42.068,106.96,4.18E+07
13497,13,47.441,104.58,2.81E+07
13498,12.336,46.659,104.4,4.39E+07
13499,12.372,44.48,104.48,4.45E+07
13500,13,45.418,106.33,3.58E+07
13501,13,51.699,105.76,2.83E+07
13502,12.39,50.847,105.3,3.74E+07
13503,12.336,48.876,104.69,4.81E+07
13504,13,50.143,107.34,3.56E+07
13505,13,47.616,106.57,4.09E+07
13506,11.153,49.126,106.3,3.78E+07
13507,12.39,52.86,106.26,3.14E+07
13508,13,52.146,108.28,3.01E+07
13509,11.722,32.402,114.85,8.16E+06
13510,10.997,32.225,112.26,1.07E+07
13511,11.855,34.448,110.34,3.11E+07
13512,12.183,34.763,113.9,1.37E+07
13513,10.142,33.029,112.34,1.28E+07
13514,10.42,35.11,112.64,2.20E+07
13515,10.615,33.252,114.29,9.93E+06
13516,11.288,33.839,116.99,6.20E+06
13517,10.992,33.199,115.94,7.40E+06
13518,10.563,31.835,110.65,1.27E+07
13519,9.4811,32.907,109.19,2.13E+07
13520,9.7388,32.671,110.74,1.47E+07
13521,10.587,28.918,93.271,1.52E+08
13522,8.9634,31.2,97.859,7.73E+07
13523,10.578,-0.71372,71.985,6.85E+07
13524,8.3728,1.9827,71.083,1.24E+08
13525,9.4528,4.2849,71.214,1.60E+08
13526,10.928,-22.313,53.025,8.77E+07
13527,10.604,-22.767,53.17,7.44E+07
13528,10.588,-20.621,57.689,8.02E+07
13529,10.083,-22.211,53.385,7.72E+07
13530,9.0873,-19.554,56.012,7.25E+07
13531,8.3394,-20.483,54.484,6.65E+07
13532,12.996,-24.082,43.509,7.96E+07
13533,12.447,-23.444,45.388,9.34E+07
13534,13.448,-23.513,42.72,1.26E+08
13535,13.458,-20.608,42.757,2.00E+08
13536,12.766,-21.438,44.504,1.54E+08
13537,11.105,-22.424,43.246,8.37E+07
13538,11.728,-23.289,44.072,7.87E+07
13539,12.325,-24.006,45.387,6.54E+07
13540,13.338,-24.082,42.673,9.62E+07
13541,13.041,-24.565,42.545,6.99E+07
13542,12.015,-24.485,45.319,4.89E+07
13543,11.966,-24.14,44.44,5.31E+07
13544,10.899,-22.951,43.164,5.57E+07
13545,11.522,-23.816,43.991,5.38E+07
13546,11.504,-22.896,49.132,8.66E+07
13547,11.643,-20.964,48.487,1.25E+08
13548,12.171,-21.291,46.356,1.39E+08
13549,11.784,-23.796,47.298,6.12E+07
13550,11.373,-23.444,49.22,7.05E+07
13551,9.9996,-22.281,46.495,6.29E+07
13552,11.576,-23.478,46.373,6.57E+07
13553,11.005,-23.102,48.002,6.83E+07
13554,11.132,-23.154,45.924,6.67E+07
13555,11.311,-20.537,50.362,1.32E+08
13556,11.089,-22.948,51.137,7.85E+07
13557,10.412,-22.423,51.351,7.93E+07
13558,10.658,-22.686,49.875,7.62E+07
13559,12.975,-24.887,41.507,7.06E+07
13560,13.589,-25.151,39.623,1.28E+08
13561,10.133,-25,41.897,8.47E+07
13562,10.88,-25.492,39.47,6.55E+07
13563,12.868,-24.34,40.222,8.23E+07
13564,10.781,-23.168,42.102,5.20E+07
13565,13.71,-24.084,41.85,1.16E+08
13566,14.734,-23.695,40.093,2.18E+08
13567,13.826,-20.615,41.936,2.19E+08
13568,13.548,-23.597,40.539,1.36E+08
13569,11.461,-22.425,42.42,9.86E+07
13570,14.011,-24.971,39.853,1.51E+08
13571,14.609,-24.196,40.12,1.89E+08
13572,13.346,-24.123,40.445,1.05E+08
13573,11.26,-22.951,42.326,6.91E+07
13574,21.519,-29.015,31.566,3.20E+08
13575,21.626,-28.737,31.524,3.24E+08
13576,22.964,-27.416,30.504,3.03E+08
13577,21.155,-29.832,31.696,2.76E+08
13578,22.638,-32.008,30.556,2.52E+08
13579,21.225,-29.104,29.965,2.34E+08
13580,21.97,-30.668,29.003,2.33E+08
13581,23.149,-28.651,28.3,2.64E+08
13582,20.356,-31.087,30.448,2.00E+08
13583,16.077,-26.075,36.635,2.85E+08
13584,16.546,-25.549,36.846,3.10E+08
13585,15.397,-24.963,38.353,2.61E+08
13586,12.806,-27.305,36.724,1.31E+08
13587,14.871,-27.311,35.934,1.91E+08
13588,12.101,-26.147,38.04,9.01E+07
13589,13.748,-25.725,35.972,1.15E+08
13590,14.041,-24.607,38.63,1.80E+08
13591,15.335,-24.099,35.421,1.73E+08
13592,13.607,-22.669,37.432,1.83E+08
13593,18.741,-27.444,33.982,3.53E+08
13594,18.981,-27.072,34.017,3.59E+08
13595,17.738,-26.258,35.386,3.74E+08
13596,16.279,-28.175,34.833,2.62E+08
13597,18.231,-28.181,33.85,3.07E+08
13598,15.042,-26.32,34.568,1.87E+08
13599,16.63,-24.693,34.018,2.43E+08
13600,16.981,-27.347,33.468,2.21E+08
13601,20.252,-27.949,32.749,3.64E+08
13602,19.672,-29.009,32.75,3.16E+08
13603,18.343,-28.093,32.205,2.34E+08
13604,19.811,-28.295,31.128,2.62E+08
13605,19.13,-26.645,33.969,3.82E+08
13606,21.63,-26.326,31.605,3.43E+08
13607,20.391,-25.278,32.745,3.91E+08
13608,18.461,-27.819,32.182,2.31E+08
13609,19.93,-28.022,31.105,2.59E+08
13610,19.632,-26.113,31.265,2.60E+08
13611,16.818,-24.857,36.803,3.45E+08
13612,17.89,-22.98,35.472,4.13E+08
13613,19.147,-24.293,34.019,4.05E+08
13614,16.908,-24.18,34.047,2.60E+08
13615,17.259,-26.834,33.497,2.36E+08
13616,18.43,-25.129,32.58,2.66E+08
13617,14.729,-20.963,40.149,2.93E+08
13618,16.744,-22.205,36.961,3.61E+08
13619,15.955,-20.281,38.128,3.68E+08
13620,14.51,-23.924,38.784,2.13E+08
13621,15.804,-23.416,35.575,2.09E+08
13622,14.076,-21.987,37.586,2.14E+08
13623,5.2505,-25.389,40.835,2.47E+08
13624,8.556,-25.495,40.031,1.50E+08
13625,6.8749,-23.214,42.545,1.30E+08
13626,10.528,-24.34,40.788,6.69E+07
13627,8.441,-23.168,42.668,9.32E+07
13628,-20.006,-17.113,-45.971,7.62E+07
13629,-20.638,-15.056,-45.219,1.52E+08
13630,-20.1,-16.505,-44.135,8.72E+07
13631,-20.002,-17.348,-46.204,6.68E+07
13632,-20.26,-15.82,-45.844,1.46E+08
13633,-19.434,-16.595,-45.822,6.29E+07
13634,-19.261,-17.571,-45.502,4.80E+07
13635,-19.262,-15.045,-45.123,8.40E+07
13636,-20,-15.318,-46.533,2.49E+08
13637,-20.644,-13.325,-46.201,3.50E+08
13638,-20,-13.418,-46.564,3.53E+08
13639,-20,-15.314,-46.577,2.11E+08
13640,-20.449,-14.52,-46.2,2.74E+08
13641,-20,-14.154,-48.371,1.86E+08
13642,-19.429,-15.31,-46.193,1.81E+08
13643,-19.258,-13.76,-45.494,2.03E+08
13644,-18.734,-14.938,-47.172,2.09E+08
13645,-20.001,-16.339,-46.328,1.45E+08
13646,-20,-16.004,-46.499,1.66E+08
13647,-20.352,-15.174,-46.097,2.20E+08
13648,-19.429,-15.999,-46.115,1.30E+08
13649,-20.003,-16.824,-46.149,8.35E+07
13650,-20.001,-17.083,-46.396,7.41E+07
13651,-20.001,-16.336,-46.397,1.12E+08
13652,-20.299,-15.513,-46.01,1.60E+08
13653,-19.43,-16.331,-46.013,7.47E+07
13654,-20.001,-17.238,-46.326,6.31E+07
13655,-20.271,-15.68,-45.956,1.43E+08
13656,-19.431,-16.486,-45.944,6.02E+07
13657,-22.033,-13.017,-45.374,4.12E+08
13658,-23.491,-12.733,-44.209,2.28E+08
13659,-23.306,-12.291,-45.304,2.19E+08
13660,-23.307,-12.593,-44.937,2.28E+08
13661,-21.463,-13.966,-41.778,1.70E+08
13662,-21.004,-14.495,-43.423,1.61E+08
13663,-23.471,-12.739,-42.494,2.47E+08
13664,-21.436,-13.913,-45.084,2.74E+08
13665,-22.736,-12.251,-44.334,2.60E+08
13666,-20.302,-13.165,-44.41,2.02E+08
13667,-21.725,-12.37,-43.877,2.44E+08
13668,-22.911,-11.284,-45.704,3.46E+08
13669,-20.756,-12.207,-46.138,4.10E+08
13670,-20.75,-10.11,-46.027,4.70E+08
13671,-21.204,-13.383,-45.849,3.61E+08
13672,-22.477,-11.634,-45.062,3.84E+08
13673,-20.044,-12.548,-45.138,3.05E+08
13674,-21.467,-11.753,-44.606,3.48E+08
13675,-24.791,-12.376,-45.162,2.23E+08
13676,-25.27,-12.017,-45.931,1.16E+08
13677,-25.903,-12.5,-45.021,1.37E+08
13678,-25.622,-12.382,-45.524,1.25E+08
13679,-25,-12.5,-42.593,1.78E+08
13680,-26.614,-12.5,-43.42,1.54E+08
13681,-25.559,-11.17,-44.27,1.83E+08
13682,-24.191,-11.784,-44.433,2.19E+08
13683,-24.51,-11.538,-45.914,2.51E+08
13684,-25.17,-10.987,-46.33,1.58E+08
13685,-25.045,-9.0693,-46.229,1.91E+08
13686,-22.203,-9.5832,-45.631,2.65E+08
13687,-25.297,-10.407,-44.973,1.89E+08
13688,-23.929,-11.021,-45.135,2.17E+08
13689,-24.036,-9.3749,-44.09,1.84E+08
13690,-25.191,-11.529,-46.231,1.49E+08
13691,-25.368,-10.932,-44.784,2.00E+08
13692,-24,-11.546,-44.946,2.32E+08
13693,-50.043,-12.404,-64.456,7.55E+05
13694,-48.147,-12.061,-63.65,6.33E+05
13695,-48.102,-12.5,-62.269,1.29E+06
13696,-50.237,-12.5,-61.389,1.81E+06
13697,-50.045,-12,-63.787,1.25E+06
13698,-50.237,-12,-61.389,2.29E+06
13699,-49.458,-11.5,-62.841,1.17E+06
13700,-50.088,-11.64,-65.541,9.60E+05
13701,-48.367,-11,-64.379,9.85E+05
13702,-50.102,-10.5,-65.734,1.28E+06
13703,-50.079,-11.059,-65.401,1.29E+06
13704,-48.273,-11.613,-64.139,6.28E+05
13705,-50.043,-11.809,-64.427,1.15E+06
13706,-50.061,-11.618,-65.067,9.49E+05
13707,-27.544,-11,-48.11,2.27E+07
13708,-25.879,-11.574,-46.665,6.03E+07
13709,-25.667,-9.0273,-46.644,9.76E+07
13710,-27.013,-9.0216,-47.695,2.49E+07
13711,-27.475,-10.288,-46.23,5.27E+07
13712,-25.964,-10.42,-45.346,9.34E+07
13713,-44.896,-11,-61.667,2.04E+06
13714,-46.204,-12.061,-62.132,1.23E+06
13715,-48.367,-10.5,-64.379,8.14E+05
13716,-48.338,-11.25,-63.405,1.01E+06
13717,-48.346,-11.059,-64.045,8.64E+05
13718,-45.655,-8.25,-62.26,2.24E+06
13719,-47.387,-9.1897,-63.613,1.11E+06
13720,-47.339,-9.8832,-61.326,1.61E+06
13721,-47.751,-10.75,-62.459,1.08E+06
13722,-41.426,-11,-58.956,5.37E+06
13723,-42.526,-12.061,-59.258,4.14E+06
13724,-44.469,-12.061,-60.776,2.33E+06
13725,-45.427,-11.75,-58.133,3.74E+06
13726,-43.92,-8.25,-60.904,3.50E+06
13727,-42.076,-8.25,-59.464,5.81E+06
13728,-44.263,-9.379,-58.427,3.49E+06
13729,-45.604,-9.8832,-59.97,2.62E+06
13730,-37.955,-11,-56.244,1.07E+07
13731,-38.848,-12.061,-56.385,7.86E+06
13732,-40.791,-12.061,-57.902,6.01E+06
13733,-38.497,-8.25,-56.667,1.17E+07
13734,-40.341,-8.25,-58.108,7.89E+06
13735,-42.528,-9.379,-57.071,5.13E+06
13736,-40.067,-9.8127,-55.093,6.34E+06
13737,-34.485,-11,-53.533,1.76E+07
13738,-35.17,-12.061,-53.511,1.25E+07
13739,-37.113,-12.061,-55.029,1.10E+07
13740,-37.611,-11.75,-52.698,8.85E+06
13741,-36.762,-8.25,-55.312,1.49E+07
13742,-35.327,-8.6229,-54.191,1.86E+07
13743,-38.331,-9.8127,-53.737,9.33E+06
13744,-36.348,-9.7035,-52.305,9.29E+06
13745,-31.014,-11,-50.822,2.27E+07
13746,-31.492,-12.061,-50.638,1.18E+07
13747,-33.435,-12.061,-52.155,1.59E+07
13748,-32.037,-8.1098,-51.62,2.80E+07
13749,-33.592,-8.6229,-52.836,2.22E+07
13750,-34.613,-9.7035,-50.949,1.27E+07
13751,-32.92,-10.01,-50.025,1.16E+07
13752,-27.614,-11.574,-48.02,2.10E+07
13753,-29.757,-12.061,-49.282,1.43E+07
13754,-30.302,-8.1098,-50.265,2.94E+07
13755,-28.748,-9.0216,-49.051,3.03E+07
13756,-29.21,-10.288,-47.586,2.24E+07
13757,-31.185,-10.01,-48.669,1.30E+07
13758,-26.379,-12.386,-46.025,6.96E+07
13759,-28.675,-12.5,-47.09,3.65E+07
13760,-27.48,-12.5,-43.905,8.62E+07
13761,-28.664,-12.5,-45.158,6.20E+07
13762,-27.937,-11.038,-45.639,6.66E+07
13763,-26.426,-11.17,-44.755,1.17E+08
13764,-28.322,-12.386,-47.543,2.99E+07
13765,-27.61,-10.819,-46.057,5.65E+07
13766,-26.099,-10.951,-45.173,1.03E+08
13767,-32.561,-12.5,-50.126,1.07E+07
13768,-32.91,-12.5,-47.636,1.04E+07
13769,-30.606,-12.5,-46.676,1.93E+07
13770,-29.879,-11.038,-47.157,2.44E+07
13771,-31.854,-10.76,-48.241,7.53E+06
13772,-36.446,-12.5,-53.162,1.11E+07
13773,-34.853,-12.5,-49.154,6.38E+06
13774,-36.753,-12.5,-51.076,1.14E+07
13775,-35.489,-10.453,-50.682,9.47E+06
13776,-33.797,-10.76,-49.758,7.08E+06
13777,-40.332,-12.5,-56.197,7.39E+06
13778,-41.163,-12.5,-53.625,8.27E+06
13779,-38.696,-12.5,-52.594,9.56E+06
13780,-39.416,-10.563,-53.633,8.10E+06
13781,-44.217,-12.5,-59.233,3.68E+06
13782,-43.106,-12.5,-55.142,6.92E+06
13783,-44.984,-12.5,-56.835,5.36E+06
13784,-43.82,-10.129,-57.128,4.92E+06
13785,-41.359,-10.563,-55.15,6.34E+06
13786,-48.438,-12.5,-59.891,2.33E+06
13787,-48.438,-12,-59.891,2.82E+06
13788,-46.927,-12.5,-58.353,4.33E+06
13789,-47.103,-10.633,-60.19,2.41E+06
13790,-47.516,-11.5,-61.323,1.83E+06
13791,-20,-10.155,-46.416,4.28E+08
13792,-20,-10.636,-48.355,2.70E+08
13793,-20,-12.947,-48.359,2.44E+08
13794,-18.448,-11.962,-47.348,3.13E+08
13795,-19.258,-12.553,-45.482,2.62E+08
13796,-18.734,-13.731,-47.16,2.69E+08
13797,-23.722,-1.5611,-45.124,1.08E+08
13798,-24.718,-7.59E-14,-45.902,6.68E+07
13799,-21.386,-1.58E-11,-43.448,4.97E+08
13800,-21.839,-0.82953,-43.878,3.08E+08
13801,-25.745,-1.07E-11,-43.033,9.40E+07
13802,-22.734,-8.43E-12,-42.625,2.34E+08
13803,-23.919,-1.9983,-43.472,1.25E+08
13804,-25.011,-5.1586,-46.131,1.15E+08
13805,-22.787,-5.7105,-45.172,2.78E+08
13806,-22.759,-7.6747,-45.603,2.25E+08
13807,-26.811,-7.0589,-47.538,6.68E+07
13808,-27.214,-5.6616,-45.785,8.88E+07
13809,-27.273,-8.3257,-46.072,8.77E+07
13810,-25.239,-5.5356,-44.503,1.31E+08
13811,-25.762,-8.4577,-45.189,1.14E+08
13812,-24.501,-7.4254,-44.306,1.23E+08
13813,-22.35,-3.8635,-44.746,2.92E+08
13814,-25.564,-1.6533,-46.564,6.28E+07
13815,-22.686,-2.4739,-44.59,3.04E+08
13816,-26.591,-1.6533,-43.695,8.93E+07
13817,-26.571,-3.0884,-47.35,6.68E+07
13818,-26.338,-5.1749,-47.168,6.86E+07
13819,-26.741,-3.7775,-45.415,7.41E+07
13820,-24.765,-3.6516,-44.133,1.23E+08
13821,-20,-2.3537,-43.916,7.33E+08
13822,-20,-0.28425,-42.669,9.74E+08
13823,-20.388,-1.0721,-43.33,5.69E+08
13824,-20,0.245,-45.457,5.69E+08
13825,-20,1.1212,-43.492,5.41E+08
13826,-18.538,-0.22231,-43.039,6.44E+08
13827,-19.488,-0.14048,-42.418,6.83E+08
13828,-19.08,-1.8027,-42.619,5.73E+08
13829,-20.426,-0.99298,-42.508,7.90E+08
13830,-20,-6.1342,-45.543,5.13E+08
13831,-20.521,-2.9189,-44.218,4.66E+08
13832,-20,-1.563,-46.44,3.58E+08
13833,-20,-4.0159,-47.694,3.24E+08
13834,-22.536,-4.1012,-43.692,3.77E+08
13835,-20.799,-3.2175,-43.201,4.93E+08
13836,-18.538,-2.0303,-44.023,4.31E+08
13837,-18.121,-3.3517,-45.968,4.34E+08
13838,-21.798,-5.9909,-43.496,4.10E+08
13839,-18.982,-5.0679,-43.222,3.52E+08
13840,-17.62,-5.8922,-45.256,3.93E+08
13841,-17.468,-4.0204,-44.157,3.88E+08
13842,-19.08,-3.6107,-43.602,3.86E+08
13843,-20.426,-2.8009,-43.491,6.07E+08
13844,-20,-8.5916,-48.12,2.69E+08
13845,-20,-5.9745,-48.325,2.78E+08
13846,-20.576,-9.266,-43.458,3.13E+08
13847,-21.691,-9.5954,-45.171,3.36E+08
13848,-18.123,-7.4911,-48.87,3.16E+08
13849,-18.121,-5.3103,-46.599,3.86E+08
13850,-18.448,-9.9183,-47.113,3.36E+08
13851,-19.258,-10.509,-45.247,2.79E+08
13852,-21.798,-7.9495,-44.126,3.61E+08
13853,-18.982,-7.0265,-43.852,3.03E+08
13854,-17.62,-7.8509,-45.887,3.42E+08
13855,-18.427,-9.1336,-43.451,2.70E+08
13856,-20.681,-9.714,-44.714,3.35E+08
13857,-52.04,-10,-67.248,1.37E+06
13858,-50.088,-10.64,-65.541,1.22E+06
13859,-51.458,-11.061,-66.237,1.12E+06
13860,-51.74,-10.563,-66.875,1.31E+06
13861,-50.775,-8.0841,-66.26,1.13E+06
13862,-49.122,-8.6897,-64.969,1.12E+06
13863,-50.842,-9.1617,-63.582,1.33E+06
13864,-52.517,-9.4162,-65.602,1.00E+06
13865,-59.792,-10,-73.305,5.89E+05
13866,-61.73,-8.125,-74.819,2.51E+05
13867,-61.8,-10.574,-74.729,1.76E+05
13868,-60.424,-11.061,-73.242,4.33E+05
13869,-63.6,-10,-76.045,4.38E+05
13870,-62.849,-10.772,-75.352,3.30E+05
13871,-60.276,-8.125,-73.684,3.74E+05
13872,-61.911,-9.0097,-72.766,5.00E+05
13873,-63.781,-9.2867,-73.885,4.17E+05
13874,-55.916,-10,-70.277,1.43E+06
13875,-58.486,-11.061,-71.728,1.03E+06
13876,-57.356,-10.496,-71.295,1.32E+06
13877,-56.885,-8.125,-71.034,1.18E+06
13878,-58.338,-8.125,-72.169,9.69E+05
13879,-59.973,-9.0097,-71.252,7.92E+05
13880,-57.909,-9.3907,-70.179,9.23E+05
13881,-54.972,-11.061,-68.982,1.39E+06
13882,-53.678,-10.563,-68.389,1.58E+06
13883,-55.418,-10.496,-69.781,1.52E+06
13884,-54.947,-8.125,-69.52,1.39E+06
13885,-52.713,-8.0841,-67.774,1.23E+06
13886,-55.971,-9.3907,-68.665,1.13E+06
13887,-54.455,-9.4162,-67.116,1.18E+06
13888,-61.73,-4.375,-74.819,4.16E+05
13889,-59.792,-2.5,-73.305,3.57E+05
13890,-61.8,-1.926,-74.729,4.32E+05
13891,-63.6,-2.5,-76.045,5.94E+05
13892,-62.616,-1.7707,-75.228,4.78E+05
13893,-60.276,-4.375,-73.684,4.11E+05
13894,-63.931,-3.1445,-74.21,6.09E+05
13895,-61.903,-3.179,-73.515,5.55E+05
13896,-63.6,-8.125,-76.045,5.39E+05
13897,-63.6,-4.375,-76.045,5.74E+05
13898,-64.628,-6.2508,-76.548,6.25E+05
13899,-60.276,-6.25,-73.684,4.38E+05
13900,-61.911,-7.1347,-72.766,5.73E+05
13901,-63.781,-7.4117,-73.885,5.26E+05
13902,-63.931,-5.0195,-74.21,5.97E+05
13903,-61.903,-5.054,-73.515,5.53E+05
13904,-52.04,-2.5,-67.248,5.19E+05
13905,-50.102,-1.25,-65.734,5.01E+05
13906,-48.149,-1.25,-64.209,1.89E+06
13907,-50.059,-1.3482,-65.017,1.41E+06
13908,-51.458,-1.4393,-66.237,7.77E+05
13909,-47.39,-4,-63.616,2.34E+06
13910,-50.775,-4.3341,-66.26,8.07E+05
13911,-49.122,-4.9397,-64.969,1.16E+06
13912,-52.821,-3.51,-65.339,7.62E+05
13913,-48.927,-3.0875,-63.264,1.74E+06
13914,-50.758,-3.1658,-64.359,1.04E+06
13915,-55.916,-2.5,-70.277,6.27E+05
13916,-53.396,-1.4393,-67.751,2.41E+05
13917,-55.383,-2.0172,-69.759,5.35E+05
13918,-54.947,-4.375,-69.52,8.71E+05
13919,-52.713,-4.3341,-67.774,7.98E+05
13920,-54.759,-3.51,-66.853,4.87E+05
13921,-56.824,-3.75,-68.782,4.45E+05
13922,-59.862,-1.926,-73.215,3.51E+05
13923,-58.486,-1.4393,-71.728,5.04E+05
13924,-57.321,-2.0172,-71.273,6.02E+05
13925,-56.885,-4.375,-71.034,9.26E+05
13926,-58.338,-4.375,-72.169,7.21E+05
13927,-58.762,-3.75,-70.296,4.99E+05
13928,-59.965,-3.179,-72,5.49E+05
13929,-48.149,-5.84E-15,-64.209,1.39E+06
13930,-50.052,0,-63.534,5.21E+05
13931,-50.05,-0.5,-64.761,8.02E+05
13932,-28.623,-6.42E-14,-48.953,4.04E+07
13933,-29.172,-1.17E-11,-46.85,2.16E+07
13934,-27.697,-1.07E-11,-44.559,7.37E+07
13935,-27.677,-1.4351,-48.214,4.89E+07
13936,-27.847,-2.1242,-46.279,2.96E+07
13937,-32.528,-5.25E-14,-52.004,2.94E+07
13938,-31.125,-1.17E-11,-48.375,1.83E+07
13939,-32.393,-1.27E-11,-50.136,2.28E+07
13940,-30.95,-2.6098,-50.771,3.41E+07
13941,-29.63,-1.4351,-49.74,4.26E+07
13942,-36.433,-4.09E-14,-55.055,1.85E+07
13943,-34.346,-1.27E-11,-51.661,1.71E+07
13944,-36.661,-1.44E-11,-52.796,1.52E+07
13945,-32.902,-2.6098,-52.297,2.85E+07
13946,-35.892,-2.75,-54.632,1.95E+07
13947,-34.458,-3.1229,-53.512,2.30E+07
13948,-36.095,-1.9253,-52.148,1.48E+07
13949,-40.339,-2.92E-14,-58.107,9.95E+06
13950,-40.859,-1.60E-11,-55.544,8.48E+06
13951,-38.613,-1.44E-11,-54.322,1.00E+07
13952,-37.845,-2.75,-56.158,1.44E+07
13953,-39.688,-2.75,-57.599,1.06E+07
13954,-41.429,-1.5066,-56.737,8.44E+06
13955,-39.919,-1.6881,-54.942,8.97E+06
13956,-44.244,-1.75E-14,-61.158,4.84E+06
13957,-42.811,-1.60E-11,-57.07,5.38E+06
13958,-44.554,-1.73E-11,-58.995,4.67E+06
13959,-43.485,-2.75,-60.565,5.06E+06
13960,-41.641,-2.75,-59.124,7.41E+06
13961,-45.022,-1.8375,-60.213,4.46E+06
13962,-43.382,-1.5066,-58.263,5.31E+06
13963,-48.22,-5.84E-15,-62.012,1.92E+06
13964,-48.121,-0.5,-63.235,2.31E+06
13965,-46.507,-1.73E-11,-60.521,2.83E+06
13966,-45.438,-2.75,-62.09,3.26E+06
13967,-46.974,-1.8375,-61.739,2.63E+06
13968,-65.534,-12.5,-44.696,2.47E+06
13969,-68.572,-12.404,-44.235,1.44E+06
13970,-67.906,-12,-44.295,2.38E+06
13971,-65.534,-12,-44.696,3.05E+06
13972,-66.287,-12.5,-42.56,3.04E+06
13973,-61.019,-12.5,-46.332,4.14E+06
13974,-63.227,-12,-45.378,4.59E+06
13975,-61.019,-12,-46.332,4.78E+06
13976,-63.948,-12.5,-43.101,3.74E+06
13977,-61.283,-12.5,-44.102,5.79E+06
13978,-57.025,-12.5,-48.997,6.31E+06
13979,-58.942,-12,-47.544,6.08E+06
13980,-57.025,-12,-48.997,6.40E+06
13981,-56.573,-12.5,-46.458,7.66E+06
13982,-59.14,-12.5,-45.185,6.56E+06
13983,-53.78,-12.5,-52.537,6.13E+06
13984,-55.296,-12,-50.669,7.45E+06
13985,-53.78,-12,-52.537,6.52E+06
13986,-52.64,-12.5,-51.221,7.34E+06
13987,-54.75,-12.5,-48.021,8.33E+06
13988,-53.401,-12.5,-49.459,8.22E+06
13989,-54.472,-11.239,-49.625,7.01E+06
13990,-51.474,-12.5,-56.749,3.44E+06
13991,-52.5,-12,-54.574,5.61E+06
13992,-51.474,-12,-56.749,4.09E+06
13993,-51.242,-12.5,-53.173,6.45E+06
13994,-50.097,-12.5,-55.264,5.48E+06
13995,-51.15,-11.157,-55.174,4.61E+06
13996,-50.716,-12,-59.032,3.37E+06
13997,-49.205,-12.5,-57.493,4.83E+06
13998,-69.657,-11.64,-44.185,1.94E+06
13999,-69.851,-10.5,-44.182,2.73E+06
14000,-69.517,-11.059,-44.188,2.97E+06
14001,-68.172,-11,-42.381,3.78E+06
14002,-68.544,-11.809,-44.237,2.52E+06
14003,-69.183,-11.618,-44.2,2.44E+06
14004,-66.952,-12.401,-42.488,3.15E+06
14005,-67.925,-11.613,-42.309,3.35E+06
14006,-66.79,-12.077,-41.568,3.87E+06
14007,-69.657,-10.64,-44.185,3.25E+06
14008,-68.172,-10.5,-42.381,4.26E+06
14009,-71.528,-10,-45.981,2.76E+06
14010,-70.689,-8.125,-45.081,3.03E+06
14011,-68.734,-8.7349,-42.984,4.11E+06
14012,-68.023,-9.1867,-45.145,2.94E+06
14013,-70.424,-9.0709,-46.863,2.53E+06
14014,-68.572,-11.404,-44.235,3.58E+06
14015,-65.534,-11.5,-44.696,4.40E+06
14016,-66.287,-12,-42.56,4.25E+06
14017,-67.199,-11.25,-42.438,4.16E+06
14018,-69.27,-11.5,-45.758,3.15E+06
14019,-66.151,-11.766,-41.616,4.78E+06
14020,-67.761,-9.4849,-43.041,4.01E+06
14021,-66.898,-11.5,-46.487,3.47E+06
14022,-67.05,-9.9367,-45.202,3.34E+06
14023,-66.771,-10.883,-43.685,4.00E+06
14024,-67.838,-11.059,-42.39,4.26E+06
14025,-71.282,-10.613,-45.908,2.82E+06
14026,-69.934,-11.401,-45.686,3.14E+06
14027,-68.4,-9.2941,-42.993,4.11E+06
14028,-67.689,-9.7459,-45.154,3.28E+06
14029,-70.09,-9.6301,-46.872,2.71E+06
14030,-50.237,-11.5,-61.389,2.82E+06
14031,-50.043,-11.404,-64.456,1.39E+06
14032,-51.621,-11.5,-65.018,1.37E+06
14033,-49.094,-9.4397,-63.995,1.16E+06
14034,-52.015,-11.5,-62.628,2.03E+06
14035,-50.814,-9.9117,-62.608,1.74E+06
14036,-49.458,-11,-62.841,1.65E+06
14037,-61.019,-11.5,-46.332,5.75E+06
14038,-63.948,-12,-43.101,4.78E+06
14039,-61.283,-12,-44.102,6.76E+06
14040,-61.852,-11.5,-48.173,5.10E+06
14041,-64.559,-11.5,-47.028,4.70E+06
14042,-64.711,-9.9367,-45.743,4.25E+06
14043,-63.395,-10.497,-43.484,5.12E+06
14044,-63.027,-9.7012,-46.979,4.53E+06
14045,-61.655,-9.5915,-45.251,5.15E+06
14046,-64.432,-10.883,-44.226,4.68E+06
14047,-57.025,-11.5,-48.997,6.77E+06
14048,-56.573,-12,-46.458,8.10E+06
14049,-59.14,-12,-45.185,7.10E+06
14050,-59.709,-11.5,-49.257,6.01E+06
14051,-58.168,-10.309,-47.847,6.04E+06
14052,-60.884,-9.7012,-48.062,4.98E+06
14053,-57.724,-9.8243,-45.078,6.33E+06
14054,-59.512,-9.5915,-46.334,5.51E+06
14055,-56.295,-10.739,-48.062,6.45E+06
14056,-53.78,-11.5,-52.537,6.58E+06
14057,-52.64,-12,-51.221,7.42E+06
14058,-54.75,-12,-48.021,8.47E+06
14059,-57.887,-11.5,-50.819,6.33E+06
14060,-55.955,-11.5,-52.097,6.47E+06
14061,-54.726,-9.9969,-51.573,6.07E+06
14062,-56.345,-10.309,-49.41,6.39E+06
14063,-54.472,-10.739,-49.625,7.18E+06
14064,-51.474,-11.5,-56.749,4.71E+06
14065,-51.242,-12,-53.173,7.03E+06
14066,-54.557,-11.5,-54.049,5.58E+06
14067,-53.914,-11.5,-55.706,4.99E+06
14068,-52.674,-9.7789,-55.694,4.56E+06
14069,-53.328,-9.9969,-53.525,5.29E+06
14070,-50.962,-10.066,-53.409,5.92E+06
14071,-51.15,-10.657,-55.174,5.23E+06
14072,-49.205,-12,-57.493,5.35E+06
14073,-52.35,-11.5,-60.251,3.17E+06
14074,-53.022,-11.5,-57.935,3.55E+06
14075,-51.782,-9.7789,-57.923,3.34E+06
14076,-51.149,-9.9117,-60.231,2.85E+06
14077,-49.381,-10.133,-59.33,3.19E+06
14078,-49.794,-11,-60.463,2.76E+06
14079,-50.258,-10.657,-57.403,4.15E+06
14080,-51.607,-11.401,-65.686,1.15E+06
14081,-49.101,-9.2489,-64.635,1.14E+06
14082,-50.821,-9.7209,-63.248,1.45E+06
14083,-59.755,-12.429,55.461,5.37E+07
14084,-59.413,-12.061,53.822,9.26E+07
14085,-57.89,-12.5,53.424,1.01E+08
14086,-59.182,-12,55.414,1.00E+08
14087,-56.981,-12.5,55.387,6.27E+07
14088,-60.865,-11.731,55.6,6.95E+07
14089,-60.12,-11,54.104,9.85E+07
14090,-61.118,-10.5,55.64,9.81E+07
14091,-60.788,-11.059,55.588,1.22E+08
14092,-59.831,-11.686,53.964,7.91E+07
14093,-59.737,-11.86,55.46,9.08E+07
14094,-60.374,-11.669,55.531,8.88E+07
14095,-43.686,-11,28.798,1.32E+08
14096,-42.25,-11.574,26.796,1.23E+08
14097,-43.269,-12.061,28.963,1.51E+08
14098,-41.447,-10.998,25.258,5.30E+07
14099,-40.818,-11.75,25.567,9.42E+07
14100,-42.316,-8.624,26.688,1.75E+07
14101,-41.347,-11.573,25.315,7.97E+07
14102,-43.317,-8.6246,28.23,4.74E+07
14103,-40.916,-10.021,27.861,8.26E+07
14104,-57.438,-11,49.975,1.28E+08
14105,-58.121,-12.061,51.832,1.35E+08
14106,-60.12,-10.5,54.104,1.13E+08
14107,-59.152,-11.25,53.991,1.30E+08
14108,-59.79,-11.059,54.055,1.30E+08
14109,-56.755,-11.25,54.118,1.25E+08
14110,-58.102,-8.625,50.997,7.22E+07
14111,-59.415,-8.3939,53.018,6.25E+07
14112,-56.686,-10.092,52.072,1.02E+08
14113,-58.444,-9.684,54.542,9.00E+07
14114,-54.413,-11,45.316,1.41E+08
14115,-55.144,-12.061,47.248,1.48E+08
14116,-56.436,-12.061,49.238,1.36E+08
14117,-56.418,-8.625,48.404,7.50E+07
14118,-55.071,-8.625,46.329,7.92E+07
14119,-54.028,-10.216,47.549,1.10E+08
14120,-55.002,-10.092,49.478,1.04E+08
14121,-51.731,-11,41.187,1.59E+08
14122,-52.51,-12.061,43.193,1.68E+08
14123,-53.803,-12.061,45.183,1.58E+08
14124,-52.382,-8.625,42.189,9.11E+07
14125,-53.73,-8.625,44.264,8.83E+07
14126,-51.096,-9.4057,44.431,1.01E+08
14127,-52.687,-10.216,45.484,1.20E+08
14128,-50.277,-9.7301,42.409,1.12E+08
14129,-49.05,-11,37.057,1.71E+08
14130,-49.877,-12.061,39.138,1.87E+08
14131,-51.169,-12.061,41.128,1.77E+08
14132,-51.041,-8.625,40.124,9.92E+07
14133,-49.694,-8.625,38.05,9.93E+07
14134,-48.232,-10.605,38.216,1.49E+08
14135,-48.936,-9.7301,40.344,1.21E+08
14136,-46.368,-11,32.928,1.66E+08
14137,-47.244,-12.061,35.083,1.93E+08
14138,-48.536,-12.061,37.073,1.90E+08
14139,-47.006,-8.625,33.91,9.57E+07
14140,-48.353,-8.625,35.985,1.02E+08
14141,-45.137,-9.8196,34.19,1.21E+08
14142,-46.891,-10.605,36.152,1.52E+08
14143,-45.921,-8.8004,36.127,9.40E+07
14144,-44.61,-12.061,31.028,1.77E+08
14145,-45.903,-12.061,33.018,1.85E+08
14146,-45.665,-8.625,31.845,8.76E+07
14147,-44.658,-8.6246,30.295,7.34E+07
14148,-42.257,-10.021,29.926,1.06E+08
14149,-43.796,-9.8196,32.125,1.12E+08
14150,-41.569,-12.386,27.238,1.44E+08
14151,-42.38,-12.5,29.541,1.72E+08
14152,-40.144,-12.5,26.002,1.20E+08
14153,-40.194,-12.5,29.849,1.73E+08
14154,-39.08,-12.5,27.918,1.72E+08
14155,-40.287,-10.771,28.269,1.10E+08
14156,-42.861,-12.386,29.228,1.69E+08
14157,-40.642,-12.383,25.718,1.13E+08
14158,-41.065,-12.06,25.476,9.76E+07
14159,-40.732,-10.551,27.981,1.01E+08
14160,-44.965,-12.5,33.521,2.05E+08
14161,-41.486,-12.5,31.839,1.95E+08
14162,-43.051,-12.5,33.52,1.98E+08
14163,-41.579,-10.771,30.26,1.28E+08
14164,-43.119,-10.57,32.459,1.33E+08
14165,-47.55,-12.5,37.502,2.10E+08
14166,-44.28,-12.5,37.247,2.05E+08
14167,-44.344,-12.5,35.511,2.05E+08
14168,-44.411,-10.57,34.449,1.40E+08
14169,-46.165,-11.355,36.411,1.72E+08
14170,-50.135,-12.5,41.482,1.97E+08
14171,-47.318,-12.5,41.524,1.95E+08
14172,-45.572,-12.5,39.237,2.02E+08
14173,-47.458,-11.355,38.401,1.69E+08
14174,-48.162,-10.48,40.529,1.40E+08
14175,-52.72,-12.5,45.463,1.77E+08
14176,-49.885,-12.5,45.801,1.75E+08
14177,-48.61,-12.5,43.514,1.85E+08
14178,-50.273,-10.156,44.541,1.18E+08
14179,-51.865,-10.966,45.595,1.37E+08
14180,-49.454,-10.48,42.519,1.30E+08
14181,-55.305,-12.5,49.443,1.55E+08
14182,-51.178,-12.5,47.792,1.65E+08
14183,-52.831,-12.5,49.786,1.53E+08
14184,-53.157,-10.966,47.585,1.27E+08
14185,-54.131,-10.842,49.514,1.21E+08
14186,-57.89,-12,53.424,1.33E+08
14187,-55.492,-12,53.551,1.30E+08
14188,-55.694,-12.5,53.517,9.96E+07
14189,-54.124,-12.5,51.776,1.43E+08
14190,-55.423,-10.842,51.504,1.09E+08
14191,-39.911,-10.995,22.165,9.06E+07
14192,-39.173,-11.569,20.596,1.61E+08
14193,-38.652,-11.178,18.606,2.60E+08
14194,-38.79,-8.783,19.123,2.55E+08
14195,-39.672,-8.4,21.612,1.94E+08
14196,-38.242,-11.3,19.273,2.04E+08
14197,-38.484,-10.034,21.988,1.49E+08
14198,-39.521,-12.026,22.285,6.85E+07
14199,-39.807,-11.571,22.21,7.72E+07
14200,-39.963,-11.748,24.067,5.16E+07
14201,-41.419,-8.6398,25.215,3.65E+07
14202,-40.365,-8.3879,23.192,1.07E+08
14203,-40.532,-11.572,23.785,3.12E+07
14204,-39.162,-10.035,23.576,7.52E+07
14205,-40.06,-10.019,26.361,5.23E+07
14206,-38.409,-12.385,20.871,1.33E+08
14207,-38.531,-12.5,22.754,8.80E+07
14208,-37.513,-12.658,19.081,2.19E+08
14209,-36.825,-12.5,22.84,1.61E+08
14210,-39.059,-12.383,22.528,6.18E+07
14211,-36.068,-12.96,19.991,2.02E+08
14212,-37.536,-12.053,19.527,1.81E+08
14213,-37.779,-10.787,22.242,1.34E+08
14214,-38.59,-11.685,18.716,2.43E+08
14215,-37.979,-12.474,18.948,2.26E+08
14216,-38.037,-11.832,19.347,1.88E+08
14217,-38.279,-10.566,22.062,1.35E+08
14218,-37.495,-12.5,24.482,1.60E+08
14219,-39.805,-12.383,24.146,7.28E+07
14220,-38.182,-12.5,26.343,1.51E+08
14221,-38.49,-10.787,23.91,9.69E+07
14222,-39.389,-10.771,26.695,9.32E+07
14223,-37.67,-16.37,7.5735,3.42E+08
14224,-37.629,-16.652,7.6807,3.43E+08
14225,-37.443,-17.486,8.2111,3.28E+08
14226,-37.883,-14.993,5.8528,3.06E+08
14227,-38.19,-17.485,3.3104,3.12E+08
14228,-38.188,-14.992,3.3162,2.87E+08
14229,-37.69,-19.99,6.906,2.99E+08
14230,-38.105,-20.037,4.0333,3.01E+08
14231,-34.812,-17.626,4.9573,2.49E+08
14232,-36.387,-18.865,3.181,2.73E+08
14233,-36.352,-16.448,4.2748,2.73E+08
14234,-36.206,-16.604,6.7423,2.80E+08
14235,-35.671,-18.769,7.8898,2.58E+08
14236,-36.363,-20.447,5.4706,2.62E+08
14237,-37.834,-12.382,14.76,3.72E+08
14238,-37.912,-12.475,16.884,3.38E+08
14239,-37.769,-9.3551,14.49,3.77E+08
14240,-38.266,-9.1347,17.17,3.44E+08
14241,-37.688,-11.638,17.326,2.99E+08
14242,-36.539,-10.167,16.042,2.87E+08
14243,-35.811,-12.248,15.811,2.61E+08
14244,-37.536,-14.227,11.09,3.85E+08
14245,-37.523,-13.819,13.094,3.96E+08
14246,-37.682,-13.084,14.987,3.60E+08
14247,-37.577,-10.16,12.606,3.99E+08
14248,-37.513,-11.583,10.784,3.79E+08
14249,-35.579,-11.704,12.105,2.95E+08
14250,-36.267,-10.957,14.161,3.15E+08
14251,-35.539,-13.038,13.93,2.97E+08
14252,-36.329,-13.243,11.413,3.23E+08
14253,-37.518,-15.562,9.4242,3.76E+08
14254,-37.472,-14.658,11.237,3.86E+08
14255,-37.663,-13.88,7.5751,3.40E+08
14256,-37.553,-12.602,8.9949,3.67E+08
14257,-36.041,-15.499,8.4738,3.05E+08
14258,-36.292,-14.256,9.6198,3.16E+08
14259,-37.283,-15.04,11.378,3.83E+08
14260,-37.078,-16.647,10.011,3.57E+08
14261,-35.978,-15.777,8.5758,3.07E+08
14262,-35.63,-15.836,10.413,2.99E+08
14263,-36.23,-14.534,9.7219,3.15E+08
14264,-37.203,-13.622,15.168,3.53E+08
14265,-36.789,-15.789,11.801,3.60E+08
14266,-35.983,-15.795,14.061,3.47E+08
14267,-35.518,-15.068,12.282,3.03E+08
14268,-35.327,-13.56,14.108,2.99E+08
14269,-36.118,-13.765,11.591,3.24E+08
14270,-35.712,-14.896,15.832,2.94E+08
14271,-35.911,-13.584,18.12,3.00E+08
14272,-37.252,-12.332,17.549,2.85E+08
14273,-35.375,-12.942,16.034,2.51E+08
14274,-13.275,-17.486,35.961,2.37E+08
14275,-11,-15.943,36.98,2.52E+08
14276,-11,-19.365,36.711,1.96E+08
14277,-11,-18.362,37.91,1.70E+08
14278,-11,-16.744,38.195,1.70E+08
14279,-12.041,-15.439,35.201,2.66E+08
14280,-10.07,-18.876,35.496,1.87E+08
14281,-9.2836,-19.515,37.507,1.44E+08
14282,-9.6617,-16.964,37.537,1.83E+08
14283,-10.09,-16.489,35.479,2.14E+08
14284,-11.347,-17.4,34.917,2.32E+08
14285,-36.125,-17.486,12.821,3.35E+08
14286,-37.185,-19.99,9.2498,3.13E+08
14287,-36.405,-19.99,11.957,3.09E+08
14288,-35.693,-16.604,9.0839,2.90E+08
14289,-35.157,-18.769,10.231,2.69E+08
14290,-35.344,-16.663,10.921,2.85E+08
14291,-34.242,-17.486,17.23,3.28E+08
14292,-34.673,-19.991,16.31,2.99E+08
14293,-35.584,-19.989,14.214,3.04E+08
14294,-34.712,-15.781,16.969,3.03E+08
14295,-32.212,-17.585,14.104,2.18E+08
14296,-34.355,-18.769,12.491,2.60E+08
14297,-34.543,-16.663,13.181,2.76E+08
14298,-32.585,-16.731,16.932,2.61E+08
14299,-34.352,-15.156,15.007,2.73E+08
14300,-33.268,-19.149,15.563,2.50E+08
14301,-31.823,-17.486,21.37,3.34E+08
14302,-33.585,-19.991,18.448,3.00E+08
14303,-32.352,-19.99,20.534,2.90E+08
14304,-32.258,-15.58,21.409,3.08E+08
14305,-33.6,-15.764,19.089,3.03E+08
14306,-30.465,-19.015,20.062,2.50E+08
14307,-31.507,-16.731,19.073,2.63E+08
14308,-32.19,-19.149,17.705,2.52E+08
14309,-28.907,-17.486,25.176,3.55E+08
14310,-29.618,-19.664,24.316,2.82E+08
14311,-31.002,-19.99,22.52,2.91E+08
14312,-29.61,-15.572,24.948,3.47E+08
14313,-30.892,-15.557,23.353,3.19E+08
14314,-27.069,-17.618,22.402,2.44E+08
14315,-29.038,-15.524,23.121,2.67E+08
14316,-29.129,-19.015,22.052,2.55E+08
14317,-30.171,-16.731,21.064,2.63E+08
14318,-27.549,-17.944,24.306,2.84E+08
14319,-25.538,-17.486,28.587,3.56E+08
14320,-28.039,-19.663,26.12,2.95E+08
14321,-26.35,-19.409,27.826,2.78E+08
14322,-26.576,-15.566,28.162,3.92E+08
14323,-28.028,-15.559,26.721,3.66E+08
14324,-27.463,-15.524,24.929,2.79E+08
14325,-26.127,-15.301,26.4,2.87E+08
14326,-25.975,-17.944,26.114,3.01E+08
14327,-21.769,-17.486,31.552,3.24E+08
14328,-24.558,-19.41,29.42,2.65E+08
14329,-22.602,-19.196,30.95,2.48E+08
14330,-23.194,-15.561,31.009,4.07E+08
14331,-24.799,-15.563,29.741,3.87E+08
14332,-24.339,-15.301,27.997,2.78E+08
14333,-22.311,-16.781,29.495,3.11E+08
14334,-22.434,-18.823,28.81,2.81E+08
14335,-24.187,-17.944,27.711,2.92E+08
14336,-17.66,-17.486,34.022,2.81E+08
14337,-18.921,-19.82,33.322,1.99E+08
14338,-20.622,-19.196,32.303,2.34E+08
14339,-19.289,-15.563,33.577,3.99E+08
14340,-21.247,-15.568,32.371,3.97E+08
14341,-20.338,-16.781,30.857,3.01E+08
14342,-18.662,-18.54,31.499,2.77E+08
14343,-18.531,-15.983,31.778,2.98E+08
14344,-13.196,-15.974,36.244,2.62E+08
14345,-13.26,-19.364,35.956,2.09E+08
14346,-16.798,-19.82,34.441,1.81E+08
14347,-14.976,-20.469,35.265,1.63E+08
14348,-14.953,-15.266,35.868,3.73E+08
14349,-17.172,-15.576,34.702,3.83E+08
14350,-13.944,-17.315,32.282,2.92E+08
14351,-16.535,-18.54,32.604,2.58E+08
14352,-16.403,-15.983,32.882,2.83E+08
14353,-14.29,-15.439,34.371,2.81E+08
14354,-14.622,-19.339,33.685,2.34E+08
14355,-13.596,-17.4,34.086,2.54E+08
14356,-11,-13.473,38.841,2.69E+08
14357,-12.829,-12.616,40.267,3.91E+08
14358,-12.669,-12.634,40.566,3.51E+08
14359,-11.76,-12.634,42.729,2.94E+08
14360,-13.003,-14.324,39.966,1.27E+08
14361,-11,-14.386,39.955,1.97E+08
14362,-12.904,-13.084,38.903,3.96E+08
14363,-13.097,-11.522,40.257,3.22E+08
14364,-9.6617,-14.605,39.297,1.98E+08
14365,-11.608,-11.882,38.913,3.11E+08
14366,-10.936,-10.73,41.318,2.82E+08
14367,-9.9877,-13.621,41.015,2.26E+08
14368,-9.2988,-11.984,39.981,2.46E+08
14369,-11.123,-14.074,41.407,1.86E+08
14370,-11,-15.282,38.693,2.02E+08
14371,-12.838,-13.998,37.634,4.04E+08
14372,-12.041,-13.977,35.699,3.02E+08
14373,-9.5947,-13.18,36.356,2.49E+08
14374,-9.6617,-15.502,38.035,2.10E+08
14375,-11.608,-12.779,37.651,3.12E+08
14376,-10.09,-15.027,35.977,2.47E+08
14377,-9.2988,-12.881,38.719,2.44E+08
14378,-14.499,-12.505,40.587,4.75E+08
14379,-16.578,-12.508,39.736,5.14E+08
14380,-14.834,-14.201,39.987,2.54E+08
14381,-14.741,-12.505,40.501,5.69E+08
14382,-14.682,-12.839,38.842,5.18E+08
14383,-14.927,-11.398,40.278,4.41E+08
14384,-13.439,-11.759,38.935,4.23E+08
14385,-15.049,-12.033,39.387,4.66E+08
14386,-13.348,-12.5,43.021,3.72E+08
14387,-14.666,-14.192,40.292,2.31E+08
14388,-14.58,-12.5,40.806,5.32E+08
14389,-13.507,-15.244,42.672,2.40E+08
14390,-15.675,-12.5,42.084,4.44E+08
14391,-14.766,-11.387,40.583,4.00E+08
14392,-12.606,-10.595,41.644,3.39E+08
14393,-14.564,-10.847,42.393,3.68E+08
14394,-12.792,-13.94,41.733,2.57E+08
14395,-20.5,-12.5,38.177,5.30E+08
14396,-16.675,-12.5,39.996,5.84E+08
14397,-16.572,-12.767,38.289,5.15E+08
14398,-18.761,-12.88,36.928,5.09E+08
14399,-17.752,-12.5,41.232,5.19E+08
14400,-20.022,-12.5,40.524,4.77E+08
14401,-19.663,-10.68,39.279,4.26E+08
14402,-16.844,-11.387,39.731,4.57E+08
14403,-17.632,-11.144,37.834,4.49E+08
14404,-16.965,-12.023,38.84,4.83E+08
14405,-24.342,-12.5,35.85,4.81E+08
14406,-20.725,-12.877,35.872,4.95E+08
14407,-22.702,-12.882,34.64,4.77E+08
14408,-22.001,-12.5,39.462,4.61E+08
14409,-23.725,-12.5,38.435,4.42E+08
14410,-21.642,-10.68,38.217,4.10E+08
14411,-23.921,-10.678,37.003,3.86E+08
14412,-22.063,-11.497,35.723,4.24E+08
14413,-19.611,-11.144,36.771,4.31E+08
14414,-27.922,-12.5,33.137,4.17E+08
14415,-24.553,-12.873,33.381,4.48E+08
14416,-26.166,-12.882,32.104,4.15E+08
14417,-27.528,-12.5,37.276,3.73E+08
14418,-28.811,-12.5,35.163,3.67E+08
14419,-25.583,-12.5,37.174,4.08E+08
14420,-25.779,-10.678,35.742,3.52E+08
14421,-26.245,-10.872,32.657,3.28E+08
14422,-23.921,-11.497,34.462,3.90E+08
14423,-27.561,-10.691,34.451,3.35E+08
14424,-31.202,-12.5,30.069,3.56E+08
14425,-27.876,-12.873,30.66,3.93E+08
14426,-29.349,-12.882,29.223,3.61E+08
14427,-32.079,-12.5,31.988,3.16E+08
14428,-30.529,-12.5,33.716,3.34E+08
14429,-30.947,-10.62,31.221,2.85E+08
14430,-27.962,-10.872,31.21,2.98E+08
14431,-29.857,-11.413,28.796,2.77E+08
14432,-29.278,-10.691,33.004,3.04E+08
14433,-34.263,-12.5,26.529,2.77E+08
14434,-30.9,-12.873,27.61,3.33E+08
14435,-32.216,-12.882,26.028,2.91E+08
14436,-33.637,-12.5,30.371,2.86E+08
14437,-34.896,-12.5,28.349,2.63E+08
14438,-32.505,-10.62,29.604,2.55E+08
14439,-31.415,-11.413,27.179,2.48E+08
14440,-33.692,-10.447,27.961,2.36E+08
14441,-33.7,-12.874,24.109,2.61E+08
14442,-34.991,-12.981,21.736,2.32E+08
14443,-36.386,-12.5,26.424,2.13E+08
14444,-36.452,-12.053,21.275,1.93E+08
14445,-36.694,-10.787,23.991,1.69E+08
14446,-32.905,-11.413,25.255,2.12E+08
14447,-33.867,-10.717,23.557,1.90E+08
14448,-35.182,-10.447,26.037,1.96E+08
14449,-42.224,-3.8739,26.547,1.47E+08
14450,-41.044,-1.4943,24.583,2.70E+08
14451,-43.516,-1.5,28.537,1.91E+08
14452,-42.067,-0.92597,26.514,2.42E+08
14453,-41.056,-3.6578,24.59,2.14E+08
14454,-43.226,-3.8746,28.089,1.18E+08
14455,-40.429,-2.4141,26.249,2.01E+08
14456,-41.504,-2.5608,28.252,1.75E+08
14457,-41.107,-6.0137,24.668,1.40E+08
14458,-43.282,-6.2489,28.176,4.19E+07
14459,-39.982,-7.6612,25.023,9.40E+07
14460,-40.486,-4.7884,26.336,1.29E+08
14461,-40.881,-7.6454,27.807,5.07E+07
14462,-41.56,-4.9351,28.339,1.01E+08
14463,-37.395,-1.4492,7.791,3.40E+08
14464,-37.695,-3.2859,5.6797,2.57E+08
14465,-37.912,-1.4441,3.3168,1.74E+08
14466,-37.768,-0.85782,3.3183,1.77E+08
14467,-37.51,-0.88745,5.6076,2.55E+08
14468,-37.266,-0.8904,7.7811,3.35E+08
14469,-36.522,-1.8656,4.3485,2.04E+08
14470,-36.175,-1.7953,6.6279,2.42E+08
14471,-37.38,-1.4599,12.144,4.34E+08
14472,-37.45,-3.3045,7.8464,3.38E+08
14473,-37.4,-4.2546,11.134,4.07E+08
14474,-37.181,-0.89401,9.9667,4.18E+08
14475,-36.011,-1.8005,8.7981,3.26E+08
14476,-36.162,-1.8438,11.137,3.57E+08
14477,-35.974,-3.778,9.4122,3.16E+08
14478,-37.994,-1.4712,16.453,4.19E+08
14479,-37.547,-4.279,13.311,4.22E+08
14480,-37.947,-4.0138,15.997,3.90E+08
14481,-37.485,-0.90157,14.327,4.40E+08
14482,-37.254,-0.89774,12.153,4.28E+08
14483,-36.312,-1.8493,13.308,3.68E+08
14484,-36.637,-2.1114,15.659,3.71E+08
14485,-39.226,-1.4827,20.628,3.55E+08
14486,-38.448,-4.0418,18.121,3.63E+08
14487,-39.249,-3.6167,20.624,3.01E+08
14488,-38.419,-0.90944,18.597,3.93E+08
14489,-37.874,-0.90548,16.479,4.07E+08
14490,-37.101,-2.1172,17.785,3.36E+08
14491,-37.909,-1.8906,20.013,3.35E+08
14492,-40.942,-0.92129,24.64,2.90E+08
14493,-40.082,-3.6379,22.641,2.65E+08
14494,-39.956,-0.91744,22.688,3.31E+08
14495,-39.114,-0.91344,20.67,3.53E+08
14496,-38.674,-1.8964,22.05,2.94E+08
14497,-39.38,-2.4084,24.342,2.55E+08
14498,-37.849,-10.657,5.8214,2.88E+08
14499,-38.173,-12.499,3.3092,2.73E+08
14500,-38.149,-10.657,3.3254,2.49E+08
14501,-37.672,-11.224,7.2476,3.27E+08
14502,-34.641,-12.839,5.966,2.24E+08
14503,-36.345,-13.955,4.2678,2.60E+08
14504,-36.062,-11.022,6.2787,2.52E+08
14505,-36.199,-14.111,6.7353,2.69E+08
14506,-36.367,-11.606,4.341,2.45E+08
14507,-36.45,-12.868,7.8814,2.79E+08
14508,-37.787,-6.9707,5.7645,2.68E+08
14509,-37.975,-3.2852,3.3367,1.79E+08
14510,-38.034,-5.1283,3.2999,1.96E+08
14511,-37.454,-6.0949,8.9974,3.32E+08
14512,-37.616,-7.5223,7.1929,3.12E+08
14513,-36.575,-3.7076,4.3979,2.08E+08
14514,-36.229,-3.6374,6.6773,2.43E+08
14515,-36.192,-5.6148,7.2914,2.44E+08
14516,-36.233,-5.6941,4.6784,2.11E+08
14517,-38.12,-8.8145,3.3055,2.30E+08
14518,-38.079,-6.9712,3.3325,2.08E+08
14519,-37.648,-9.3729,7.2238,3.17E+08
14520,-36.039,-9.1791,6.2571,2.36E+08
14521,-36.231,-7.4576,7.3269,2.47E+08
14522,-36.271,-7.5368,4.7138,2.19E+08
14523,-36.344,-9.7627,4.3194,2.27E+08
14524,-62.457,-10,57.703,9.27E+07
14525,-60.891,-10.62,55.605,1.25E+08
14526,-61.239,-10.75,57.205,1.16E+08
14527,-61.787,-8.125,56.672,6.67E+07
14528,-60.412,-7.8939,54.554,5.54E+07
14529,-59.442,-9.184,56.078,8.04E+07
14530,-67.815,-10,65.953,3.76E+07
14531,-69.154,-8.125,68.016,2.90E+07
14532,-69.059,-10.574,68.078,2.07E+07
14533,-70.213,-10,69.985,1.94E+07
14534,-69.588,-10.772,69.177,1.60E+07
14535,-68.256,-7.9622,66.633,2.84E+07
14536,-67.255,-9.0988,68.019,2.97E+07
14537,-68.045,-9.1389,69.857,2.66E+07
14538,-65.136,-10,61.828,6.86E+07
14539,-67.697,-10.563,66.03,3.76E+07
14540,-66.097,-10.75,64.684,5.74E+07
14541,-65.922,-10.514,63.252,6.61E+07
14542,-65.674,-7.9686,62.657,3.83E+07
14543,-66.917,-7.9622,64.57,3.71E+07
14544,-64.41,-10.75,65.062,6.65E+07
14545,-64.918,-7.7566,64.257,3.46E+07
14546,-65.915,-9.0988,65.956,4.25E+07
14547,-65.552,-10.75,63.846,6.84E+07
14548,-62.202,-10.599,57.605,1.13E+08
14549,-62.579,-10.75,59.267,1.08E+08
14550,-64.601,-10.523,61.177,8.07E+07
14551,-64.335,-7.9686,60.595,4.93E+07
14552,-63.127,-8.125,58.734,5.39E+07
14553,-62.263,-8.9053,60.664,6.44E+07
14554,-63.578,-7.7566,62.195,4.54E+07
14555,-69.154,-4.375,68.016,2.89E+07
14556,-67.815,-2.5,65.953,3.70E+07
14557,-69.059,-1.926,68.078,2.00E+07
14558,-70.213,-2.5,69.985,1.94E+07
14559,-69.484,-1.7707,68.934,1.63E+07
14560,-68.256,-4.2122,66.633,2.93E+07
14561,-68.433,-2.99,70.221,2.35E+07
14562,-67.89,-2.6266,67.376,2.81E+07
14563,-70.213,-8.125,69.985,2.86E+07
14564,-70.213,-4.375,69.985,2.88E+07
14565,-70.624,-6.2508,71.053,3.76E+07
14566,-68.256,-6.0872,66.633,3.88E+07
14567,-67.255,-7.2238,68.019,3.71E+07
14568,-68.433,-4.865,70.221,3.13E+07
14569,-67.89,-4.5016,67.376,3.21E+07
14570,-68.045,-7.2639,69.857,3.50E+07
14571,-62.457,-2.5,57.703,8.93E+07
14572,-61.118,-2,55.64,9.78E+07
14573,-59.764,-2,53.555,1.01E+08
14574,-60.926,-1.8596,55.609,1.14E+08
14575,-61.787,-4.375,56.672,6.31E+07
14576,-60.412,-4.1439,54.554,5.74E+07
14577,-60.071,-3.3798,56.707,7.48E+07
14578,-65.136,-2.5,61.828,6.94E+07
14579,-62.227,-1.8874,57.588,1.08E+08
14580,-62.839,-1.4393,59.098,1.04E+08
14581,-64.586,-1.9773,61.154,8.15E+07
14582,-64.335,-4.2186,60.595,5.47E+07
14583,-63.127,-4.375,58.734,5.47E+07
14584,-61.411,-3.3798,58.769,6.84E+07
14585,-63.213,-3.0325,60.592,7.20E+07
14586,-67.719,-1.926,66.016,3.70E+07
14587,-65.925,-1.9773,63.216,6.64E+07
14588,-65.674,-4.2186,62.657,4.16E+07
14589,-66.917,-4.2122,64.57,3.84E+07
14590,-64.918,-4.0066,64.257,4.23E+07
14591,-66.55,-2.6266,65.314,4.37E+07
14592,-64.552,-3.0325,62.654,5.70E+07
14593,-59.764,-1.5,53.555,9.88E+07
14594,-60.926,-0.85962,55.609,8.87E+07
14595,-60.788,-1.4408,55.588,1.17E+08
14596,-46.332,-1.5,32.873,1.47E+08
14597,-43.421,-0.92597,28.599,2.10E+08
14598,-46.232,-0.9467,32.913,1.65E+08
14599,-45.586,-3.875,31.725,7.52E+07
14600,-44.58,-3.8746,30.174,8.69E+07
14601,-42.858,-2.5608,30.337,1.44E+08
14602,-44.209,-2.0264,32.612,1.44E+08
14603,-49.04,-1.5,37.043,1.27E+08
14604,-46.008,-0.75,36.969,1.66E+08
14605,-47.694,-0.9467,35.164,1.52E+08
14606,-47.048,-3.875,33.976,6.39E+07
14607,-48.396,-3.875,36.051,6.20E+07
14608,-45.671,-2.0264,34.864,1.31E+08
14609,-47.835,-2.013,37.378,1.19E+08
14610,-45.964,-4.0504,36.192,6.47E+07
14611,-47.233,-0.75,35.637,1.63E+08
14612,-51.64,-1.5,41.046,1.17E+08
14613,-50.719,-0.97366,39.803,1.34E+08
14614,-48.94,-0.9467,37.082,1.45E+08
14615,-50.989,-3.875,40.044,5.94E+07
14616,-49.642,-3.875,37.969,5.68E+07
14617,-49.081,-2.013,39.296,1.13E+08
14618,-50.129,-2.2235,41.606,1.03E+08
14619,-54.348,-1.5,45.216,1.11E+08
14620,-53.472,-0.93977,44.067,1.26E+08
14621,-52.073,-0.97366,41.888,1.31E+08
14622,-52.343,-3.875,42.129,5.71E+07
14623,-53.69,-3.875,44.204,5.99E+07
14624,-52.494,-2.6392,46.108,8.81E+07
14625,-51.482,-2.2235,43.691,9.99E+07
14626,-57.056,-1.5,49.386,1.09E+08
14627,-56.243,-0.94515,48.329,1.17E+08
14628,-54.826,-0.93977,46.152,1.22E+08
14629,-56.392,-3.875,48.363,5.72E+07
14630,-55.044,-3.875,46.288,5.70E+07
14631,-53.848,-2.6392,48.193,8.48E+07
14632,-55.592,-2.8294,50.319,8.07E+07
14633,-59.533,-0.88738,53.441,9.36E+07
14634,-58.796,-1.25,53.442,1.17E+08
14635,-59.433,-1.4408,53.506,1.18E+08
14636,-57.597,-0.94515,50.414,1.20E+08
14637,-57.746,-3.875,50.448,5.70E+07
14638,-59.058,-3.6439,52.469,6.21E+07
14639,-56.946,-2.8294,52.404,8.24E+07
14640,-42.155,-11.569,-13.48,1.87E+08
14641,-41.296,-11.179,-11.611,2.42E+08
14642,-43.154,-10.995,-14.898,1.28E+08
14643,-41.522,-8.783,-12.096,1.64E+08
14644,-42.822,-8.4,-14.395,1.30E+08
14645,-42.253,-11.058,-14.504,1.49E+08
14646,-41.676,-10.216,-14.782,1.45E+08
14647,-41.021,-11.277,-12.346,2.04E+08
14648,-41.45,-12.385,-13.884,1.94E+08
14649,-40.257,-12.658,-12.277,2.62E+08
14650,-41.897,-12.5,-15.717,1.35E+08
14651,-40.16,-12.5,-16.275,1.63E+08
14652,-42.378,-12.383,-15.404,1.31E+08
14653,-38.522,-12.945,-14.808,2.26E+08
14654,-41.602,-11.811,-14.877,1.55E+08
14655,-41.026,-10.97,-15.154,1.50E+08
14656,-40.37,-12.03,-12.719,2.06E+08
14657,-40.692,-12.475,-12.064,2.62E+08
14658,-41.253,-11.686,-11.73,2.42E+08
14659,-43.058,-11.571,-14.96,1.36E+08
14660,-42.787,-12.059,-15.137,1.33E+08
14661,-42.063,-11.59,-14.613,1.56E+08
14662,-41.487,-10.749,-14.89,1.49E+08
14663,-40.831,-11.809,-12.455,2.05E+08
14664,-38.391,-16.652,-1.0298,3.43E+08
14665,-38.413,-16.37,-0.91722,3.31E+08
14666,-38.323,-14.993,0.81437,2.91E+08
14667,-38.302,-17.486,-1.5265,3.40E+08
14668,-38.287,-20.037,1.524,3.02E+08
14669,-38.311,-19.762,-0.81928,3.08E+08
14670,-36.793,-16.661,-0.4914,2.83E+08
14671,-36.607,-18.865,0.66128,2.77E+08
14672,-36.573,-16.448,1.755,2.75E+08
14673,-39.272,-13.623,-8.4772,3.76E+08
14674,-39.712,-13.085,-8.2149,3.58E+08
14675,-40.268,-12.475,-10.044,3.36E+08
14676,-37.322,-14.915,-11.497,3.20E+08
14677,-37.946,-14.897,-9.2795,3.34E+08
14678,-38.054,-13.602,-12.963,3.26E+08
14679,-39.746,-12.309,-10.821,2.98E+08
14680,-37.274,-13.68,-10.137,2.75E+08
14681,-38.004,-11.932,-9.427,2.57E+08
14682,-38.692,-15.04,-4.7309,3.87E+08
14683,-38.854,-14.658,-4.5594,3.78E+08
14684,-39.227,-13.819,-6.379,3.85E+08
14685,-37.901,-15.794,-7.4862,3.80E+08
14686,-38.287,-15.789,-5.1752,3.75E+08
14687,-36.893,-14.298,-8.2489,3.10E+08
14688,-37.447,-13.776,-5.8718,3.14E+08
14689,-37.623,-12.55,-7.5391,2.88E+08
14690,-38.585,-15.562,-2.766,3.64E+08
14691,-38.259,-16.647,-3.3631,3.68E+08
14692,-37.233,-14.544,-4.0118,2.99E+08
14693,-36.887,-15.834,-2.3366,3.12E+08
14694,-38.891,-14.227,-4.4038,3.55E+08
14695,-38.406,-13.88,-0.91993,3.05E+08
14696,-38.544,-12.602,-2.3374,3.02E+08
14697,-37.277,-14.267,-3.9004,2.90E+08
14698,-36.931,-15.557,-2.2253,3.01E+08
14699,-36.885,-13.36,-2.265,2.68E+08
14700,-39.822,-12.382,-7.9663,3.36E+08
14701,-39.195,-10.16,-5.8891,2.82E+08
14702,-38.815,-11.583,-4.1064,3.02E+08
14703,-37.624,-13.254,-5.6601,2.92E+08
14704,-37.8,-12.028,-7.3273,2.68E+08
14705,-39.712,-9.355,-7.7115,2.51E+08
14706,-40.666,-9.1346,-10.264,2.36E+08
14707,-40.137,-11.615,-10.525,2.76E+08
14708,-38.395,-11.238,-9.1318,2.35E+08
14709,-45.203,-10.998,-17.678,4.50E+07
14710,-46.261,-11.574,-19.052,1.34E+07
14711,-48.023,-11,-20.775,6.94E+06
14712,-46.313,-8.9379,-18.941,2.09E+07
14713,-45.115,-11.573,-17.751,4.20E+07
14714,-47.561,-8.6246,-20.279,1.13E+07
14715,-46.048,-10.088,-20.335,1.84E+07
14716,-45.635,-11.077,-19.066,2.65E+07
14717,-43.535,-11.748,-16.762,7.53E+07
14718,-45.167,-8.9365,-17.638,4.85E+07
14719,-43.779,-8.3879,-15.831,7.66E+07
14720,-44.047,-11.572,-16.385,7.39E+07
14721,-44.532,-11.075,-17.737,5.78E+07
14722,-43.196,-11.059,-15.951,9.59E+07
14723,-42.62,-10.218,-16.228,9.14E+07
14724,-45.667,-12.386,-19.606,1.93E+07
14725,-44.049,-12.5,-18.636,5.19E+07
14726,-46.866,-12.5,-21.733,9.97E+06
14727,-43.877,-12.5,-21.949,3.49E+07
14728,-45.5,-10.838,-20.846,2.52E+07
14729,-45.086,-11.827,-19.577,3.31E+07
14730,-44.49,-12.383,-18.27,4.57E+07
14731,-47.286,-12.386,-21.341,2.66E+06
14732,-47.94,-11.574,-20.853,3.50E+06
14733,-44.865,-12.06,-17.958,4.32E+07
14734,-45.888,-10.618,-20.485,1.83E+07
14735,-45.474,-11.607,-19.216,2.69E+07
14736,-47.678,-12.053,-21.038,1.60E+06
14737,-41.097,-12.5,-17.772,1.09E+08
14738,-43.393,-12.383,-16.867,7.41E+07
14739,-42.719,-12.5,-20.554,5.86E+07
14740,-43.928,-11.827,-18.182,5.91E+07
14741,-42.592,-11.811,-16.396,9.68E+07
14742,-42.016,-10.97,-16.673,9.34E+07
14743,-63.05,-12.5,-39.089,7.26E+06
14744,-64.568,-12.378,-39.848,5.69E+06
14745,-62.004,-12.5,-41.826,5.82E+06
14746,-64.116,-10.997,-41.207,5.21E+06
14747,-65.152,-11.383,-41.949,4.77E+06
14748,-59.813,-12.5,-35.618,1.18E+07
14749,-62.949,-12.378,-38.112,7.80E+06
14750,-61.19,-12.38,-36.232,1.04E+07
14751,-58.703,-12.5,-38.495,9.12E+06
14752,-60.385,-12.5,-40.09,7.63E+06
14753,-60.812,-10.167,-38.522,7.98E+06
14754,-60.057,-11.035,-36.632,9.78E+06
14755,-62.498,-10.997,-39.471,7.35E+06
14756,-56.576,-12.5,-32.146,1.61E+07
14757,-59.572,-12.38,-34.497,1.27E+07
14758,-57.846,-12.365,-32.596,1.61E+07
14759,-57.085,-12.5,-36.759,1.11E+07
14760,-55.828,-12.5,-34.543,1.27E+07
14761,-58.439,-11.035,-34.897,1.21E+07
14762,-57.172,-11.181,-33.645,1.34E+07
14763,-53.34,-12.5,-28.675,1.81E+07
14764,-56.227,-12.365,-30.861,1.81E+07
14765,-54.013,-12.377,-28.525,2.08E+07
14766,-52.87,-12.5,-30.87,1.43E+07
14767,-54.21,-12.5,-32.807,1.44E+07
14768,-54.176,-10.167,-31.467,1.37E+07
14769,-53.652,-11.008,-29.857,1.56E+07
14770,-53.165,-11.333,-32.301,1.23E+07
14771,-55.553,-11.181,-31.91,1.53E+07
14772,-50.103,-12.5,-25.204,1.37E+07
14773,-52.394,-12.377,-26.79,2.10E+07
14774,-48.874,-12.5,-27.632,9.76E+06
14775,-51.252,-12.5,-29.135,1.42E+07
14776,-52.034,-11.008,-28.121,1.57E+07
14777,-50.68,-11.06,-27.561,1.26E+07
14778,-50.776,-12.377,-25.054,1.67E+07
14779,-47.256,-12.5,-25.897,7.28E+06
14780,-45.496,-12.5,-23.685,2.33E+07
14781,-47.606,-10.232,-24.557,1.08E+07
14782,-47.118,-10.838,-22.582,1.26E+07
14783,-49.062,-11.06,-25.825,8.73E+06
14784,-48.942,-12.382,-23.104,1.27E+07
14785,-51.381,-11,-24.376,2.22E+07
14786,-51.421,-11.553,-24.574,2.16E+07
14787,-50.714,-8.7764,-23.66,2.12E+07
14788,-49.24,-8.6246,-22.08,1.84E+07
14789,-48.215,-9.4824,-24.11,1.36E+07
14790,-47.727,-10.088,-22.135,1.36E+07
14791,-49.671,-10.31,-25.379,1.36E+07
14792,-49.592,-11.564,-22.619,1.76E+07
14793,-54.74,-11,-27.977,2.29E+07
14794,-53.1,-11.553,-26.374,2.43E+07
14795,-52.393,-8.7764,-25.461,2.38E+07
14796,-53.867,-8.625,-27.042,2.34E+07
14797,-52.704,-10.258,-27.74,1.91E+07
14798,-51.35,-10.31,-27.18,1.63E+07
14799,-58.098,-11,-31.578,1.77E+07
14800,-56.982,-11.526,-30.521,1.96E+07
14801,-54.779,-11.553,-28.175,2.23E+07
14802,-57.234,-8.625,-30.652,1.89E+07
14803,-55.546,-8.625,-28.842,2.14E+07
14804,-54.906,-9.4167,-31.15,1.49E+07
14805,-54.383,-10.258,-29.54,1.71E+07
14806,-56.284,-10.431,-31.593,1.64E+07
14807,-61.456,-11,-35.179,1.17E+07
14808,-60.402,-11.56,-34.208,1.30E+07
14809,-58.661,-11.526,-32.322,1.64E+07
14810,-58.913,-8.625,-32.452,1.58E+07
14811,-60.6,-8.625,-34.261,1.30E+07
14812,-59.23,-10.285,-34.645,1.20E+07
14813,-57.963,-10.431,-33.394,1.32E+07
14814,-64.814,-11,-38.78,7.11E+06
14815,-63.838,-11.556,-37.891,7.65E+06
14816,-62.081,-11.56,-36.009,1.02E+07
14817,-63.966,-8.625,-37.871,8.09E+06
14818,-62.279,-8.625,-36.062,1.02E+07
14819,-61.664,-9.4167,-38.335,7.32E+06
14820,-60.909,-10.285,-36.446,9.30E+06
14821,-63.349,-10.247,-39.285,6.83E+06
14822,-65.517,-11.556,-39.691,5.87E+06
14823,-65.645,-8.625,-39.672,6.32E+06
14824,-67.055,-9.2349,-41.184,5.20E+06
14825,-65.028,-10.247,-41.085,5.05E+06
14826,-66.064,-10.633,-41.827,4.67E+06
14827,-46.202,-4.1876,-18.822,2.37E+07
14828,-47.811,-1.5,-20.547,1.26E+07
14829,-44.88,-1.4951,-17.318,3.04E+07
14830,-46.032,-0.92597,-18.807,1.69E+07
14831,-44.703,-3.6578,-17.087,5.02E+07
14832,-47.447,-3.8746,-20.157,1.65E+07
14833,-45.754,-2.4472,-21.053,2.24E+07
14834,-44.161,-3.064,-19.32,3.84E+07
14835,-44.774,-6.33,-17.163,5.58E+07
14836,-47.525,-6.5627,-20.24,2.08E+07
14837,-45.833,-5.1353,-21.137,2.61E+07
14838,-46.012,-8.0259,-20.296,2.53E+07
14839,-45.598,-9.0151,-19.027,3.13E+07
14840,-44.239,-5.7521,-19.404,4.21E+07
14841,-68.155,-1.5,-42.364,4.32E+06
14842,-69.851,-2,-44.182,3.56E+06
14843,-69.657,-0.85961,-44.185,2.69E+06
14844,-69.517,-1.4408,-44.188,3.86E+06
14845,-64.765,-1.5,-38.728,7.12E+06
14846,-68.155,-2,-42.364,4.72E+06
14847,-67.909,-0.88738,-42.291,3.80E+06
14848,-67.183,-1.25,-42.421,4.56E+06
14849,-67.821,-1.4408,-42.373,4.84E+06
14850,-65.474,-0.94446,-39.645,5.91E+06
14851,-65.629,-3.875,-39.654,6.45E+06
14852,-67.039,-4.4849,-41.166,5.33E+06
14853,-65.008,-2.2177,-42.113,4.53E+06
14854,-63.548,-2.7253,-39.903,5.62E+06
14855,-66.669,-2.7968,-43.433,4.10E+06
14856,-61.374,-1.5,-35.092,1.06E+07
14857,-61.992,-0.95044,-35.907,9.24E+06
14858,-63.779,-0.94446,-37.827,7.41E+06
14859,-63.933,-3.875,-37.836,7.94E+06
14860,-62.246,-3.875,-36.027,1.00E+07
14861,-59.875,-3.0382,-36.624,7.54E+06
14862,-61.853,-2.7253,-38.085,7.10E+06
14863,-57.983,-1.5,-31.455,1.50E+07
14864,-58.612,-0.94935,-32.284,1.32E+07
14865,-60.296,-0.95044,-34.089,1.13E+07
14866,-58.863,-3.875,-32.399,1.48E+07
14867,-60.551,-3.875,-34.209,1.20E+07
14868,-58.18,-3.0382,-34.805,9.52E+06
14869,-58.313,-1.9434,-33.251,1.15E+07
14870,-54.592,-1.5,-27.819,1.82E+07
14871,-55.209,-0.95591,-28.63,1.67E+07
14872,-56.917,-0.94935,-30.466,1.56E+07
14873,-57.168,-3.875,-30.581,1.72E+07
14874,-55.481,-3.875,-28.772,1.96E+07
14875,-56.618,-1.9434,-31.433,1.39E+07
14876,-55.142,-1.8651,-29.756,1.48E+07
14877,-51.201,-1.5,-24.183,1.68E+07
14878,-51.736,-0.95929,-24.904,1.58E+07
14879,-53.513,-0.95591,-26.812,1.75E+07
14880,-52.311,-4.0264,-25.373,2.09E+07
14881,-53.785,-3.875,-26.954,2.05E+07
14882,-51.537,-3.1584,-27.494,1.35E+07
14883,-51.017,-2.102,-26.162,1.37E+07
14884,-53.446,-1.8651,-27.938,1.56E+07
14885,-47.727,-0.92597,-20.625,1.01E+07
14886,-50.04,-0.95929,-23.086,1.36E+07
14887,-50.616,-4.0264,-23.555,1.89E+07
14888,-49.142,-3.8746,-21.975,1.68E+07
14889,-47.45,-2.4472,-22.871,1.83E+07
14890,-49.322,-2.102,-24.344,1.20E+07
14891,-71.528,-2.5,-45.981,3.38E+06
14892,-69.657,-1.8596,-44.185,4.04E+06
14893,-70.689,-4.375,-45.081,3.38E+06
14894,-68.734,-4.9849,-42.984,4.45E+06
14895,-70.512,-3.1267,-47.017,2.95E+06
14896,-68.364,-3.2968,-45.251,3.26E+06
14897,-78.237,-2.5,-53.175,1.09E+06
14898,-79.915,-4.375,-54.974,2.99E+05
14899,-79.831,-1.926,-55.052,2.80E+05
14900,-81.299,-2.5,-56.73,3.08E+05
14901,-80.543,-1.7283,-56.042,1.00E+05
14902,-78.657,-4.375,-53.625,8.42E+05
14903,-77.717,-3.125,-55.062,9.88E+05
14904,-79.324,-3.0512,-56.402,5.30E+05
14905,-74.883,-2.5,-49.578,2.47E+06
14906,-78.154,-1.926,-53.253,1.15E+06
14907,-75.92,-1.9775,-50.828,2.18E+06
14908,-75.721,-4.375,-50.477,2.17E+06
14909,-76.979,-4.375,-51.826,1.75E+06
14910,-75.298,-4.9687,-52.372,1.78E+06
14911,-76.04,-3.125,-53.263,1.74E+06
14912,-71.282,-1.8874,-45.908,3.54E+06
14913,-72.147,-1.4393,-47.288,3.06E+06
14914,-74.243,-1.9775,-49.03,2.64E+06
14915,-74.044,-4.375,-48.679,2.63E+06
14916,-72.367,-4.375,-46.88,2.91E+06
14917,-72.19,-3.1267,-48.816,2.49E+06
14918,-73.621,-4.9687,-50.573,2.20E+06
14919,-79.915,-8.125,-54.974,4.68E+05
14920,-78.237,-10,-53.175,1.01E+06
14921,-79.831,-10.574,-55.052,4.75E+05
14922,-81.299,-10,-56.73,4.18E+05
14923,-80.399,-10.729,-55.821,3.21E+05
14924,-78.657,-8.125,-53.625,9.08E+05
14925,-78.633,-9.3298,-55.258,8.48E+05
14926,-79.47,-9.646,-56.5,6.76E+05
14927,-81.299,-8.125,-56.73,4.04E+05
14928,-81.299,-4.375,-56.73,3.94E+05
14929,-81.865,-6.2508,-57.665,4.66E+05
14930,-78.657,-6.25,-53.625,9.12E+05
14931,-77.717,-5,-55.062,1.05E+06
14932,-78.633,-7.4548,-55.258,8.66E+05
14933,-79.324,-4.9262,-56.402,6.29E+05
14934,-79.47,-7.771,-56.5,6.95E+05
14935,-77.981,-6.796,-56.354,1.07E+06
14936,-74.883,-10,-49.578,2.05E+06
14937,-72.147,-11.061,-47.288,2.51E+06
14938,-74.224,-10.523,-49.009,2.15E+06
14939,-74.044,-8.125,-48.679,2.34E+06
14940,-72.367,-8.125,-46.88,2.62E+06
14941,-72.101,-9.0709,-48.662,2.10E+06
14942,-73.621,-8.7187,-50.573,1.93E+06
14943,-78.154,-10.574,-53.253,1.06E+06
14944,-75.901,-10.523,-50.808,1.86E+06
14945,-75.721,-8.125,-50.477,2.05E+06
14946,-76.979,-8.125,-51.826,1.64E+06
14947,-75.298,-8.7187,-52.372,1.66E+06
14948,-76.955,-9.3298,-53.459,1.39E+06
14949,-38.285,-10.657,0.83938,2.37E+08
14950,-38.358,-11.224,-0.59582,2.54E+08
14951,-35.142,-12.839,1.0253,2.13E+08
14952,-36.784,-14.168,-0.48585,2.59E+08
14953,-36.564,-13.955,1.7606,2.51E+08
14954,-36.739,-11.972,-0.52551,2.26E+08
14955,-36.586,-11.606,1.8337,2.28E+08
14956,-38.109,-3.2859,0.95236,1.13E+08
14957,-38.18,-1.4492,-1.1791,5.50E+07
14958,-37.914,-0.88745,0.99107,9.31E+07
14959,-38.051,-0.89039,-1.1917,4.69E+07
14960,-36.608,-2.6313,-0.14656,9.07E+07
14961,-36.724,-1.8656,2.0324,1.24E+08
14962,-38.214,-6.9707,0.88478,1.78E+08
14963,-38.33,-9.373,-0.57663,2.24E+08
14964,-35.115,-8.7994,-0.18319,1.55E+08
14965,-37.012,-8.1108,-1.6351,1.65E+08
14966,-36.713,-6.316,-0.21414,1.46E+08
14967,-36.487,-7.5368,2.2453,1.80E+08
14968,-36.712,-10.129,-0.50835,1.98E+08
14969,-36.56,-9.7627,1.8509,2.02E+08
14970,-38.243,-3.3045,-1.2241,9.80E+07
14971,-38.447,-6.0949,-2.3569,1.55E+08
14972,-38.294,-7.5223,-0.55162,1.89E+08
14973,-36.968,-6.2681,-1.6069,1.32E+08
14974,-36.669,-4.4733,-0.18589,1.19E+08
14975,-36.786,-3.7076,1.993,1.37E+08
14976,-36.444,-5.6941,2.2735,1.55E+08
14977,-42.367,-1.4835,-13.763,6.06E+07
14978,-44.597,-0.47535,-17.611,3.40E+07
14979,-44.806,-0.94364,-17.396,3.01E+07
14980,-42.944,-0.74507,-16.012,4.30E+07
14981,-43.572,-3.6367,-15.578,6.39E+07
14982,-43.463,-0.9199,-15.652,4.32E+07
14983,-42.971,-3.059,-17.872,4.99E+07
14984,-41.711,-2.5734,-15.69,5.68E+07
14985,-40.274,-1.4712,-9.6055,8.45E+07
14986,-40.501,-0.73847,-11.923,6.24E+07
14987,-41.663,-0.73847,-13.89,6.07E+07
14988,-41.011,-4.0418,-11.169,1.17E+08
14989,-42.235,-3.6167,-13.495,8.00E+07
14990,-40.16,-0.90547,-9.652,6.84E+07
14991,-41.064,-0.90943,-11.643,6.89E+07
14992,-42.127,-0.94235,-13.572,6.04E+07
14993,-40.429,-2.5668,-13.569,7.45E+07
14994,-39.442,-2.1117,-11.102,6.85E+07
14995,-38.921,-1.4599,-5.4684,7.53E+07
14996,-39.288,-4.279,-6.5889,1.43E+08
14997,-40.148,-4.0138,-9.1642,1.25E+08
14998,-38.798,-0.89773,-5.4989,5.88E+07
14999,-39.404,-0.90156,-7.6003,7.74E+07
15000,-38.617,-2.106,-9.0882,7.92E+07
15001,-37.755,-2.0883,-7.059,6.45E+07
15002,-38.765,-4.2546,-4.4706,1.30E+08
15003,-38.347,-0.89401,-3.3588,4.56E+07
15004,-37.231,-2.0828,-4.9467,5.41E+07
15005,-36.823,-2.6364,-2.3124,6.62E+07
15006,-68.572,-9.61E-02,-44.235,1.76E+06
15007,-66.271,-2.38E-12,-42.542,2.97E+06
15008,-65.733,0,-44.651,1.23E+06
15009,-67.906,-0.5,-44.295,2.50E+06
15010,-66.935,-9.86E-02,-42.47,3.27E+06
15011,-68.544,-0.6908,-44.237,2.87E+06
15012,-69.183,-0.88161,-44.2,3.11E+06
15013,-66.764,-0.42385,-41.539,4.06E+06
15014,-45.438,-0.11418,-19.36,2.29E+07
15015,-46.653,-3.09E-11,-21.505,2.10E+07
15016,-43.521,-3.22E-11,-18.024,4.00E+07
15017,-43.966,-0.11618,-17.665,3.59E+07
15018,-43.873,-3.24E-11,-22.142,4.43E+07
15019,-42.742,-3.16E-11,-20.531,5.25E+07
15020,-45.206,-1.6972,-21.565,3.06E+07
15021,-43.613,-2.314,-19.832,4.60E+07
15022,-47.073,-0.11418,-21.113,1.39E+07
15023,-48.116,-0.46502,-21.481,8.90E+06
15024,-45.594,-1.9169,-21.203,2.40E+07
15025,-44,-2.5336,-19.47,4.00E+07
15026,-49.99,-3.34E-11,-25.083,9.87E+06
15027,-45.508,-3.01E-11,-23.896,3.67E+07
15028,-47.031,-3.12E-11,-25.856,2.35E+07
15029,-49.4,-0.12831,-23.561,9.48E+06
15030,-46.841,-1.6972,-23.318,2.25E+07
15031,-48.713,-1.352,-24.791,1.23E+07
15032,-53.26,-2.86E-11,-28.59,1.01E+07
15033,-50.588,-3.74E-11,-29.314,9.74E+06
15034,-48.734,-3.60E-11,-27.682,1.99E+07
15035,-51.103,-0.12831,-25.386,1.11E+07
15036,-52.879,-0.12684,-27.296,1.27E+07
15037,-50.935,-2.4084,-27.948,9.41E+06
15038,-50.415,-1.352,-26.616,1.08E+07
15039,-52.844,-1.1151,-28.392,1.08E+07
15040,-56.462,-1.66E-11,-32.024,9.98E+06
15041,-52.155,-2.78E-11,-30.994,8.72E+06
15042,-53.55,-2.88E-11,-32.881,6.19E+06
15043,-54.446,-0.12684,-28.977,1.33E+07
15044,-56.152,-0.12402,-30.815,1.22E+07
15045,-53.751,-1.7212,-31.592,8.08E+06
15046,-55.888,-1.1934,-31.75,1.05E+07
15047,-54.412,-1.1151,-30.073,1.14E+07
15048,-59.732,-1.19E-11,-35.53,8.24E+06
15049,-56.8,-2.76E-11,-36.4,5.54E+06
15050,-55.185,-2.65E-11,-34.634,5.45E+06
15051,-57.787,-0.12402,-32.568,1.16E+07
15052,-59.471,-0.12449,-34.373,9.62E+06
15053,-57.389,-2.2882,-35.057,7.98E+06
15054,-57.523,-1.1934,-33.503,9.92E+06
15055,-63.001,-7.13E-12,-39.036,5.90E+06
15056,-58.435,-2.53E-11,-38.153,4.46E+06
15057,-60.933,-2.71E-11,-39.738,4.86E+06
15058,-61.106,-0.12449,-36.126,8.49E+06
15059,-62.89,-0.12194,-38.049,6.65E+06
15060,-59.024,-2.2882,-36.81,6.93E+06
15061,-61.001,-1.9753,-38.272,6.46E+06
15062,-64.125,-2.38E-12,-43.016,2.72E+06
15063,-66.271,-0.5,-42.542,4.03E+06
15064,-63.932,-0.5,-43.083,3.63E+06
15065,-62.567,-2.47E-11,-41.491,3.66E+06
15066,-64.525,-0.12194,-39.802,5.44E+06
15067,-64.096,-1.4677,-42.234,4.15E+06
15068,-62.636,-1.9753,-40.025,5.25E+06
15069,-37.106,-0.10889,0.96996,1.02E+08
15070,-36.688,-2.71E-11,-1.3267,6.19E+07
15071,-36.418,-2.69E-11,3.1862,1.73E+08
15072,-36.977,-0.10889,3.2351,1.81E+08
15073,-34.261,-1.08E-11,-0.1352,1.24E+08
15074,-34.167,-1.07E-11,2.3126,1.33E+08
15075,-35.859,-1.9092,-0.16615,9.43E+07
15076,-35.975,-1.1435,2.0128,1.33E+08
15077,-37.246,-0.11165,-1.2713,5.69E+07
15078,-37.417,-0.38416,3.2736,1.74E+08
15079,-37.725,-0.42182,-1.224,4.34E+07
15080,-36.379,-2.1191,-0.15255,8.78E+07
15081,-36.495,-1.3534,2.0264,1.26E+08
15082,-37.466,-2.77E-11,-5.83,3.17E+07
15083,-34.205,-1.07E-11,-4.8424,3.13E+07
15084,-34.486,-1.09E-11,-2.409,7.25E+07
15085,-37.55,-0.1122,-3.4966,2.44E+07
15086,-35.551,-2.63E-11,-6.5072,3.69E+07
15087,-34.392,-2.1963,-3.6311,5.33E+07
15088,-36.492,-1.3556,-5.0743,3.41E+07
15089,-36.084,-1.9092,-2.44,5.45E+07
15090,-38.886,-2.87E-11,-10.173,5.59E+07
15091,-38.013,-0.11274,-5.6941,3.89E+07
15092,-38.634,-0.1133,-7.852,5.61E+07
15093,-36.102,-2.67E-11,-8.7248,4.62E+07
15094,-37.904,-1.3733,-9.3212,5.96E+07
15095,-37.043,-1.3556,-7.2919,4.32E+07
15096,-40.921,-3.03E-11,-14.266,5.41E+07
15097,-39.41,-0.11387,-9.9589,6.08E+07
15098,-40.338,-0.11445,-12.004,5.78E+07
15099,-38.6,-2.85E-11,-15.326,7.32E+07
15100,-36.688,-2.71E-11,-13.294,6.21E+07
15101,-36.968,-2.73E-11,-10.839,4.48E+07
15102,-39.758,-1.8284,-13.902,6.75E+07
15103,-38.771,-1.3733,-11.435,6.24E+07
15104,-37.612,-1.982,-14.01,7.17E+07
15105,-41.411,-0.11503,-13.976,5.50E+07
15106,-42.622,-0.11561,-15.867,4.55E+07
15107,-39.762,-2.94E-11,-17.293,6.58E+07
15108,-41.31,-3.05E-11,-18.751,6.25E+07
15109,-42.18,-2.314,-18.051,5.61E+07
15110,-40.919,-1.8284,-15.87,6.25E+07
15111,-36.711,-0.10889,5.4882,2.43E+08
15112,-35.9,-2.65E-11,7.6773,2.87E+08
15113,-33.972,-1.06E-11,4.5375,1.95E+08
15114,-33.506,-1.02E-11,6.9423,1.83E+08
15115,-35.781,-1.1435,4.2377,1.95E+08
15116,-35.434,-1.0733,6.5171,2.31E+08
15117,-36.46,-0.11165,7.7198,2.96E+08
15118,-36.939,-0.42183,7.7563,3.33E+08
15119,-36.295,-1.3534,4.3147,2.00E+08
15120,-35.949,-1.2832,6.594,2.38E+08
15121,-41.386,-0.11418,26.956,2.73E+08
15122,-39.73,-2.94E-11,25.307,3.09E+08
15123,-42.21,-2.81E-11,29.279,2.59E+08
15124,-40.231,-0.11618,25.031,3.13E+08
15125,-39.586,-2.93E-11,29.269,2.65E+08
15126,-37.843,-2.80E-11,27.021,2.62E+08
15127,-39.8,-1.6641,26.657,2.35E+08
15128,-40.875,-1.8108,28.661,2.09E+08
15129,-42.691,-0.11418,28.967,2.47E+08
15130,-40.657,-0.43767,24.796,2.99E+08
15131,-44.611,-0.45527,31.001,2.15E+08
15132,-40.245,-1.8838,26.368,2.21E+08
15133,-41.319,-2.0304,28.372,1.95E+08
15134,-42.671,-1.4961,30.647,1.94E+08
15135,-37.822,-2.80E-11,21.155,3.45E+08
15136,-39.219,-0.11561,23.027,3.38E+08
15137,-38.355,-0.11503,20.955,3.64E+08
15138,-34.998,-2.59E-11,22.772,2.61E+08
15139,-36.741,-2.72E-11,25.019,2.94E+08
15140,-37.992,-1.1522,22.364,3.05E+08
15141,-38.699,-1.6641,24.655,2.64E+08
15142,-36.529,-2.70E-11,16.771,3.65E+08
15143,-37.641,-0.11445,18.826,3.76E+08
15144,-37.082,-0.11387,16.651,3.95E+08
15145,-34.196,-2.53E-11,20.632,2.85E+08
15146,-34.04,-2.52E-11,18.162,2.74E+08
15147,-36.381,-1.3787,17.997,3.23E+08
15148,-37.19,-1.1522,20.224,3.19E+08
15149,-35.884,-2.65E-11,12.247,3.56E+08
15150,-36.683,-0.1133,14.441,4.01E+08
15151,-36.447,-0.11274,12.208,3.93E+08
15152,-33.553,-2.48E-11,15.93,2.89E+08
15153,-34.339,-2.54E-11,13.345,2.97E+08
15154,-35.569,-1.1166,13.414,3.31E+08
15155,-35.895,-1.3787,15.764,3.31E+08
15156,-33.333,-1.01E-11,9.2207,2.34E+08
15157,-36.372,-0.11221,9.9639,3.76E+08
15158,-34.182,-2.53E-11,11.065,2.82E+08
15159,-35.261,-1.0733,8.7955,2.82E+08
15160,-35.412,-1.1166,11.135,3.14E+08
15161,-59.849,-9.61E-02,55.47,6.63E+07
15162,-57.877,-2.16E-12,53.404,9.22E+07
15163,-56.777,0,55.396,6.19E+07
15164,-59.182,-0.5,55.414,8.78E+07
15165,-56.777,-0.5,55.396,8.99E+07
15166,-58.543,-9.86E-02,53.448,1.04E+08
15167,-59.82,-0.6908,55.468,1.03E+08
15168,-60.457,-0.88161,55.542,1.05E+08
15169,-58.538,-0.42437,52.503,1.01E+08
15170,-55.265,-6.48E-12,49.383,1.43E+08
15171,-55.479,-2.16E-12,53.53,9.72E+07
15172,-57.877,-0.5,53.404,1.27E+08
15173,-55.479,-0.5,53.53,1.27E+08
15174,-54.758,-2.17E-11,51.162,1.39E+08
15175,-56.635,-0.12223,50.403,1.33E+08
15176,-54.283,-1.8892,50.239,9.76E+07
15177,-56.027,-2.0794,52.365,9.36E+07
15178,-52.654,-1.08E-11,45.362,1.55E+08
15179,-51.615,-2.25E-11,48.007,1.54E+08
15180,-53.453,-2.39E-11,49.152,1.45E+08
15181,-55.33,-0.12223,48.393,1.38E+08
15182,-53.91,-0.11995,46.217,1.43E+08
15183,-52.977,-1.8892,48.229,1.04E+08
15184,-51.966,-1.4735,45.812,1.16E+08
15185,-50.043,-1.51E-11,41.342,1.70E+08
15186,-48.614,-2.34E-11,43.564,1.72E+08
15187,-50.31,-2.47E-11,45.996,1.61E+08
15188,-52.605,-0.11995,44.207,1.50E+08
15189,-51.223,-0.1346,42.017,1.55E+08
15190,-50.66,-1.4735,43.802,1.23E+08
15191,-47.308,-2.56E-11,41.554,1.79E+08
15192,-46.48,-2.50E-11,39.073,1.88E+08
15193,-49.917,-0.1346,40.007,1.62E+08
15194,-48.124,-0.12289,37.294,1.74E+08
15195,-48.307,-1.263,39.481,1.40E+08
15196,-49.354,-1.4735,41.791,1.30E+08
15197,-47.705,-2.59E-11,37.741,1.85E+08
15198,-44.625,-2.99E-11,32.999,2.16E+08
15199,-44.979,-3.33E-11,36.761,1.99E+08
15200,-43.673,-3.23E-11,34.751,2.11E+08
15201,-46.623,-0.12289,34.983,1.85E+08
15202,-44.642,-1.2764,34.656,1.63E+08
15203,-46.204,-3.42E-11,35.429,1.96E+08
15204,-40.891,-2.71E-11,31.279,2.37E+08
15205,-42.563,-2.83E-11,33.042,2.28E+08
15206,-45.513,-0.12289,33.274,2.02E+08
15207,-42.18,-1.8108,30.671,1.81E+08
15208,-43.532,-1.2764,32.946,1.80E+08
15209,-23.985,-17.486,-29.902,3.04E+08
15210,-22.115,-19.338,-31.299,2.98E+08
15211,-20.56,-17.492,-33.094,2.39E+08
15212,-21.177,-15.386,-32.962,2.71E+08
15213,-22.337,-15.577,-31.624,3.28E+08
15214,-20.56,-18.733,-33.088,2.52E+08
15215,-20.639,-15.7,-31.135,2.64E+08
15216,-20.053,-17.921,-31.775,2.46E+08
15217,-21.61,-17.771,-29.635,2.68E+08
15218,-22.513,-16.113,-29.668,2.80E+08
15219,-27.449,-17.486,-26.757,3.09E+08
15220,-23.983,-19.337,-29.892,2.78E+08
15221,-24.184,-15.604,-30.221,3.06E+08
15222,-26.913,-19.814,-27.277,2.58E+08
15223,-25.329,-20.398,-28.748,2.50E+08
15224,-26.324,-15.553,-28.405,3.01E+08
15225,-24.78,-19.117,-26.965,2.45E+08
15226,-23.435,-17.771,-28.171,2.56E+08
15227,-24.338,-16.113,-28.204,2.66E+08
15228,-25.402,-16.965,-26.271,2.55E+08
15229,-30.505,-17.486,-23.214,3.27E+08
15230,-28.529,-19.814,-25.583,2.75E+08
15231,-29.84,-19.314,-24.047,2.91E+08
15232,-30.533,-15.574,-23.809,3.07E+08
15233,-29.385,-15.386,-25.339,2.95E+08
15234,-27.971,-15.572,-26.773,3.16E+08
15235,-28.561,-15.652,-23.911,2.71E+08
15236,-26.413,-19.117,-25.29,2.61E+08
15237,-28.36,-19.393,-23.475,2.60E+08
15238,-27.035,-16.965,-24.596,2.71E+08
15239,-33.105,-17.486,-19.324,3.40E+08
15240,-32.31,-20.289,-20.594,2.97E+08
15241,-31.252,-19.313,-22.181,2.94E+08
15242,-33.021,-15.568,-20.223,3.04E+08
15243,-31.909,-15.558,-21.943,3.09E+08
15244,-28.317,-18.077,-20.784,2.40E+08
15245,-29.978,-15.652,-22.049,2.72E+08
15246,-31.281,-18.897,-19.676,2.70E+08
15247,-31.188,-16.68,-19.805,2.76E+08
15248,-29.777,-19.393,-21.613,2.62E+08
15249,-28.452,-16.965,-22.734,2.72E+08
15250,-35.213,-17.486,-15.147,3.63E+08
15251,-33.507,-20.29,-18.582,3.08E+08
15252,-34.506,-19.253,-16.674,3.27E+08
15253,-34.175,-15.56,-18.212,3.16E+08
15254,-35.061,-15.716,-16.293,3.18E+08
15255,-33.402,-16.466,-15.578,2.79E+08
15256,-32.461,-18.897,-17.655,2.81E+08
15257,-32.367,-16.68,-17.785,2.87E+08
15258,-33.261,-18.626,-15.488,2.77E+08
15259,-36.796,-17.486,-10.744,3.77E+08
15260,-36.137,-19.874,-12.746,3.38E+08
15261,-35.463,-19.253,-14.529,3.36E+08
15262,-35.976,-15.715,-14.159,3.33E+08
15263,-34.327,-16.466,-13.429,2.90E+08
15264,-35.459,-15.893,-11.436,3.01E+08
15265,-35,-18.265,-11.488,2.98E+08
15266,-34.185,-18.626,-13.339,2.87E+08
15267,-37.831,-17.486,-6.1815,3.73E+08
15268,-37.486,-19.644,-7.955,3.45E+08
15269,-36.851,-19.874,-10.504,3.38E+08
15270,-34.399,-17.927,-7.2835,2.51E+08
15271,-36.114,-15.893,-9.1899,3.05E+08
15272,-35.656,-18.265,-9.2419,3.02E+08
15273,-36.669,-15.371,-6.8128,3.00E+08
15274,-35.778,-18.92,-6.2839,2.93E+08
15275,-37.904,-19.645,-5.6401,3.35E+08
15276,-38.189,-19.762,-3.1652,3.31E+08
15277,-34.777,-17.927,-4.9747,2.45E+08
15278,-37.046,-15.371,-4.504,2.93E+08
15279,-36.7,-16.661,-2.8289,3.06E+08
15280,-36.514,-18.865,-1.6763,2.99E+08
15281,-36.155,-18.92,-3.9751,2.86E+08
15282,-22.112,-23.042,-31.246,2.41E+08
15283,-20.394,-24.893,-32.352,1.92E+08
15284,-21.291,-23.745,-31.96,2.41E+08
15285,-23.515,-24.103,-30.18,2.10E+08
15286,-22.974,-26.634,-30.522,1.86E+08
15287,-21.244,-26.479,-31.755,1.79E+08
15288,-20.747,-23.879,-30.5,1.88E+08
15289,-21.242,-25.928,-29.988,1.71E+08
15290,-20.56,-20.961,-33.065,2.53E+08
15291,-21.28,-21.909,-32.008,2.77E+08
15292,-20.56,-20.596,-33.07,2.28E+08
15293,-23.519,-22.251,-30.217,2.43E+08
15294,-22.954,-20.969,-28.412,2.28E+08
15295,-20.052,-19.773,-31.759,2.20E+08
15296,-20.749,-22.027,-30.536,2.19E+08
15297,-21.609,-19.623,-29.618,2.40E+08
15298,-20.014,-21.448,-32.003,2.15E+08
15299,-9.0353,-24.893,-37.161,1.37E+08
15300,-5.941,-24.811,-37.781,1.33E+08
15301,-6.0344,-23.21,-38.069,1.47E+08
15302,-7.0921,-23.013,-37.998,1.40E+08
15303,-7.955,-27.075,-37.353,1.05E+08
15304,-5.6967,-26.189,-37.787,1.06E+08
15305,-8.2554,-22.899,-36.009,1.23E+08
15306,-5.2377,-24.414,-36.759,1.27E+08
15307,-7.1511,-25.289,-35.883,1.26E+08
15308,-12.988,-24.893,-35.97,1.52E+08
15309,-9.091,-23.035,-37.56,1.43E+08
15310,-9.9584,-27.076,-36.87,1.10E+08
15311,-12.334,-27.479,-36.133,1.20E+08
15312,-12.536,-23.034,-36.555,1.34E+08
15313,-10.266,-26.176,-33.587,1.30E+08
15314,-10.261,-22.899,-35.522,1.27E+08
15315,-9.1565,-25.289,-35.395,1.29E+08
15316,-11.999,-24.625,-34.432,1.29E+08
15317,-16.788,-24.893,-34.361,1.69E+08
15318,-17.23,-22.538,-34.865,1.79E+08
15319,-16.223,-27.06,-34.574,1.46E+08
15320,-14.269,-27.479,-35.413,1.35E+08
15321,-14.455,-23.026,-35.843,1.48E+08
15322,-14.762,-26.346,-33.645,1.32E+08
15323,-13.94,-24.625,-33.731,1.41E+08
15324,-16.412,-23.3,-33.972,1.59E+08
15325,-19.049,-22.51,-33.924,1.90E+08
15326,-19.563,-23.732,-33.05,2.21E+08
15327,-18.07,-27.059,-33.646,1.51E+08
15328,-19.499,-26.479,-32.856,1.62E+08
15329,-17.242,-25.909,-30.598,1.43E+08
15330,-19.001,-23.879,-31.6,1.70E+08
15331,-19.496,-25.928,-31.089,1.53E+08
15332,-16.616,-26.346,-32.739,1.35E+08
15333,-15.794,-24.625,-32.825,1.43E+08
15334,-17.997,-27.475,-32.118,1.32E+08
15335,-18.266,-23.3,-33.066,1.66E+08
15336,-2.4376,-24.613,-38.171,1.20E+08
15337,-4.9543,-23.099,-38.222,1.46E+08
15338,-4.6235,-26.085,-37.935,1.04E+08
15339,-4.1615,-24.31,-36.93,1.26E+08
15340,0,-26.879,-38.196,7.79E+07
15341,2.4376,-24.611,-38.171,1.05E+08
15342,-2.4851,-23.075,-38.445,1.39E+08
15343,-9.36E-10,-26.375,-35.125,1.35E+08
15344,-2.1743,-26.035,-38.155,9.28E+07
15345,0.41467,-23.064,-38.518,1.22E+08
15346,-1.7293,-24.259,-37.086,1.17E+08
15347,0.8658,-22.855,-37.107,1.16E+08
15348,-1.5799,-27.311,-36.538,1.02E+08
15349,1.5048,-25.202,-36.525,1.16E+08
15350,0,-45.216,-37.292,5.28E+07
15351,-2.4277,-47.505,-37.04,5.75E+07
15352,2.4277,-47.505,-37.04,5.50E+07
15353,1.2385,-48.263,-36.277,4.68E+07
15354,-1.2385,-48.263,-36.277,4.79E+07
15355,1.2227,-46.502,-35.265,3.03E+07
15356,-4.35E-15,-46.252,-35.56,2.92E+07
15357,-2.1589,-45.604,-37.201,5.20E+07
15358,-1.2113,-46.879,-36.26,2.95E+07
15359,-0.14883,-47.299,-35.878,2.40E+07
15360,0,-31.467,-38.049,3.15E+07
15361,2.4033,-26.931,-38.119,7.33E+07
15362,-1.96E-15,-28.67,-35.064,1.04E+08
15363,-2.6905,-30.73,-37.981,4.44E+07
15364,2.6265,-29.404,-38.031,3.97E+07
15365,-2.1708,-28.33,-38.093,6.19E+07
15366,-1.5799,-29.606,-36.478,6.98E+07
15367,1.5048,-27.496,-36.465,8.45E+07
15368,1.463,-30.099,-36.43,6.96E+07
15369,0,-36.053,-37.849,2.53E+07
15370,-1.96E-15,-33.31,-34.978,7.96E+07
15371,2.4804,-34.758,-37.83,1.65E+07
15372,-2.6843,-33.021,-37.892,3.27E+07
15373,2.6209,-31.695,-37.95,2.44E+07
15374,-3.2987,-35.314,-37.741,3.28E+07
15375,-1.5799,-31.899,-36.391,5.20E+07
15376,-1.7396,-35.099,-36.515,2.94E+07
15377,1.463,-32.392,-36.344,5.24E+07
15378,1.1976,-35.248,-36.316,3.48E+07
15379,0,-40.636,-37.597,4.30E+07
15380,2.4731,-37.05,-37.718,2.69E+07
15381,2.6252,-39.694,-37.561,3.87E+07
15382,-3.2887,-37.607,-37.626,3.75E+07
15383,-1.9339,-39.121,-37.636,4.23E+07
15384,-1.7396,-37.391,-36.402,1.78E+07
15385,1.1976,-37.541,-36.203,2.27E+07
15386,-8.45E-02,-39.429,-35.958,1.21E+07
15387,1.324,-40.246,-36.664,1.95E+07
15388,2.4078,-45.216,-37.214,5.12E+07
15389,-2.08E-15,-43.963,-35.725,3.31E+07
15390,2.4194,-43.963,-35.552,3.47E+07
15391,-2.08E-15,-43.088,-35.725,3.22E+07
15392,2.6154,-41.985,-37.421,4.61E+07
15393,-1.9269,-41.412,-37.499,4.85E+07
15394,-2.1682,-43.314,-37.362,5.08E+07
15395,-8.45E-02,-41.72,-35.819,9.73E+06
15396,1.324,-42.537,-36.525,2.56E+07
15397,-1.2113,-44.589,-36.426,2.72E+07
15398,-2.4277,-47.505,37.04,1.21E+08
15399,2.4277,-47.505,37.04,1.41E+08
15400,-9.92E-17,-48.252,36.31,1.18E+08
15401,-4.32E-15,-46.502,35.31,3.11E+07
15402,-1.91E-16,-46.252,35.56,3.15E+07
15403,-1.2232,-46.035,37.212,1.28E+08
15404,1.095,-46.009,37.218,1.31E+08
15405,-1.3926,-47.204,35.989,8.30E+07
15406,1.4723,-47.274,36.212,9.50E+07
15407,-7.2417,-47.505,36.406,1.30E+08
15408,-2.4249,-48.291,36.187,1.17E+08
15409,-4.8929,-48.253,35.978,1.20E+08
15410,-4.8614,-46.502,34.973,2.76E+07
15411,-4.8419,-46.252,35.228,2.18E+07
15412,-3.6554,-46.035,37.052,1.26E+08
15413,-5.7737,-45.975,36.786,1.30E+08
15414,-6.27,-47.239,35.626,8.93E+07
15415,-3.8151,-47.204,35.831,8.60E+07
15416,-11.932,-47.505,35.15,1.40E+08
15417,-9.6964,-48.253,34.99,1.21E+08
15418,-7.2802,-48.286,35.535,1.18E+08
15419,-9.6293,-46.502,33.967,2.82E+07
15420,-9.5931,-46.252,34.239,1.45E+07
15421,-10.335,-44.564,35.88,1.55E+08
15422,-8.1605,-45.975,36.331,1.40E+08
15423,-8.6511,-47.239,35.153,9.52E+07
15424,-10.826,-47.377,34.055,7.45E+07
15425,-16.418,-47.505,33.292,1.43E+08
15426,-14.323,-48.254,33.364,1.14E+08
15427,-12.004,-48.281,34.235,1.09E+08
15428,-14.165,-46.252,32.611,1.07E+07
15429,-11.892,-46.252,33.458,2.54E+07
15430,-12.654,-44.564,35.129,1.56E+08
15431,-15.249,-44.675,34.074,1.47E+08
15432,-13.125,-47.377,33.275,6.35E+07
15433,-20.623,-47.505,30.864,1.41E+08
15434,-18.687,-48.255,31.128,9.98E+07
15435,-16.51,-48.277,32.309,1.08E+08
15436,-18.522,-46.502,30.043,3.42E+07
15437,-18.471,-46.252,30.375,2.21E+07
15438,-16.342,-46.252,31.537,3.34E+07
15439,-19.724,-44.877,31.677,1.43E+08
15440,-17.443,-44.675,33.005,1.50E+08
15441,-19.563,-47.487,29.778,4.68E+07
15442,-17.538,-47.377,31.183,5.18E+07
15443,-24.475,-47.505,27.908,1.34E+08
15444,-22.71,-48.257,28.325,8.58E+07
15445,-20.716,-48.273,29.793,8.69E+07
15446,-22.431,-46.252,27.572,2.82E+07
15447,-20.489,-46.252,29.026,4.66E+07
15448,-21.754,-44.877,30.319,1.40E+08
15449,-23.761,-44.898,28.771,1.32E+08
15450,-21.582,-47.487,28.429,3.18E+07
15451,-27.908,-47.505,24.475,1.28E+08
15452,-26.319,-48.259,25.005,7.84E+07
15453,-24.544,-48.27,26.733,7.80E+07
15454,-24.301,-46.502,25.599,5.02E+07
15455,-25.972,-46.252,24.256,3.13E+07
15456,-24.256,-46.252,25.972,4.75E+07
15457,-27.222,-45.009,25.51,1.27E+08
15458,-25.594,-44.898,27.154,1.30E+08
15459,-30.864,-47.505,20.623,1.28E+08
15460,-29.446,-48.261,21.229,8.01E+07
15461,-27.925,-48.266,23.184,7.57E+07
15462,-27.599,-46.502,22.013,5.04E+07
15463,-29.026,-46.252,20.489,3.65E+07
15464,-27.572,-46.252,22.431,5.14E+07
15465,-28.832,-45.009,23.675,1.27E+08
15466,-30.32,-45.009,21.736,1.31E+08
15467,-33.292,-47.505,16.418,1.27E+08
15468,-32.036,-48.263,17.066,8.71E+07
15469,-30.797,-48.263,19.211,8.33E+07
15470,-30.371,-46.502,18.006,5.15E+07
15471,-31.537,-46.252,16.342,4.29E+07
15472,-30.375,-46.252,18.471,5.41E+07
15473,-31.679,-45.009,19.704,1.32E+08
15474,-32.801,-45.381,17.716,1.34E+08
15475,-35.15,-47.505,11.932,1.25E+08
15476,-34.04,-48.266,12.592,9.25E+07
15477,-33.108,-48.261,14.887,9.13E+07
15478,-32.563,-46.502,13.654,5.28E+07
15479,-33.458,-46.252,11.892,4.77E+07
15480,-32.611,-46.252,14.165,5.58E+07
15481,-34.776,-45.009,13.507,1.38E+08
15482,-33.89,-45.381,15.533,1.34E+08
15483,-36.406,-47.505,7.2417,1.17E+08
15484,-35.423,-48.27,7.8893,9.81E+07
15485,-34.814,-48.259,10.29,9.74E+07
15486,-34.014,-48.252,8.4752,6.80E+07
15487,-33.526,-47.752,8.364,5.91E+07
15488,-34.133,-46.502,9.0403,5.61E+07
15489,-34.754,-46.252,7.223,5.28E+07
15490,-34.239,-46.252,9.5931,5.79E+07
15491,-36.242,-45.019,8.8457,1.36E+08
15492,-35.586,-45.009,11.198,1.36E+08
15493,-37.04,-47.505,2.4277,1.06E+08
15494,-36.159,-48.273,3.0436,9.13E+07
15495,-35.885,-48.257,5.5054,9.38E+07
15496,-35.228,-46.252,4.8419,5.12E+07
15497,-36.745,-45.019,6.4459,1.30E+08
15498,-37.06,-45.009,4.2826,1.27E+08
15499,-36.102,-46.879,3.6338,8.29E+07
15500,-37.04,-47.505,-2.4277,9.81E+07
15501,-36.235,-48.277,-1.8566,9.29E+07
15502,-36.302,-48.255,0.61951,9.43E+07
15503,-35.299,-46.502,-0.61174,5.61E+07
15504,-35.56,-46.252,-6.30E-15,4.76E+07
15505,-37.323,-44.781,-0.17421,1.26E+08
15506,-37.234,-45.321,-1.9268,1.21E+08
15507,-37.262,-45.009,1.8351,1.26E+08
15508,-35.858,-46.962,-1.2753,7.21E+07
15509,-36.26,-46.879,1.2113,8.34E+07
15510,-36.406,-47.505,-7.2417,9.15E+07
15511,-35.65,-48.281,-6.7216,8.70E+07
15512,-36.055,-48.254,-4.2781,8.88E+07
15513,-35.228,-46.252,-4.8419,4.89E+07
15514,-36.728,-45.38,-6.3926,1.12E+08
15515,-37.026,-45.321,-4.3778,1.16E+08
15516,-35.7,-46.962,-3.6979,6.67E+07
15517,-35.15,-47.505,-11.932,9.29E+07
15518,-34.414,-48.286,-11.463,7.96E+07
15519,-35.151,-48.253,-9.0979,8.58E+07
15520,-33.78,-46.502,-10.212,5.47E+07
15521,-34.239,-46.252,-9.5931,4.68E+07
15522,-34.754,-46.252,-7.223,4.61E+07
15523,-35.615,-45.082,-11.089,1.12E+08
15524,-36.23,-45.38,-8.7862,1.12E+08
15525,-33.292,-47.505,-16.418,9.37E+07
15526,-32.551,-48.291,-15.993,7.50E+07
15527,-33.605,-48.253,-13.752,7.91E+07
15528,-33,-46.502,-12.511,4.71E+07
15529,-32.044,-46.502,-14.761,5.51E+07
15530,-32.611,-46.252,-14.165,4.45E+07
15531,-33.458,-46.252,-11.892,4.27E+07
15532,-34.812,-45.082,-13.4,1.15E+08
15533,-34.015,-45.053,-15.314,1.11E+08
15534,-30.864,-47.505,-20.623,9.34E+07
15535,-31.445,-48.252,-18.155,7.01E+07
15536,-30.97,-46.502,-16.939,4.07E+07
15537,-30.375,-46.252,-18.471,4.05E+07
15538,-31.537,-46.252,-16.342,3.48E+07
15539,-32.054,-44.005,-19.225,1.14E+08
15540,-32.94,-45.053,-17.507,1.12E+08
15541,-31.164,-45.579,-20.433,1.03E+08
15542,-27.908,-47.505,-24.475,9.30E+07
15543,-28.712,-48.253,-22.227,6.31E+07
15544,-30.126,-48.291,-20.193,6.37E+07
15545,-28.347,-46.502,-21.045,3.65E+07
15546,-27.572,-46.252,-22.431,3.79E+07
15547,-29.026,-46.252,-20.489,3.01E+07
15548,-29.759,-45.579,-22.431,1.03E+08
15549,-24.475,-47.505,-27.908,9.34E+07
15550,-25.454,-48.253,-25.893,5.81E+07
15551,-27.134,-48.286,-24.072,5.70E+07
15552,-25.182,-46.502,-24.75,3.26E+07
15553,-24.256,-46.252,-25.972,3.65E+07
15554,-25.972,-46.252,-24.256,2.68E+07
15555,-25.972,-45.377,-24.256,2.23E+07
15556,-24.256,-45.377,-25.972,2.97E+07
15557,-25.588,-46.003,-27.049,9.80E+07
15558,-28.229,-45.579,-24.328,1.02E+08
15559,-20.623,-47.505,-30.864,9.27E+07
15560,-21.733,-48.254,-29.086,5.88E+07
15561,-23.646,-48.281,-27.513,5.47E+07
15562,-21.536,-46.502,-27.982,2.62E+07
15563,-20.489,-46.252,-29.026,3.24E+07
15564,-22.431,-46.252,-27.572,2.30E+07
15565,-22.39,-44.926,-29.848,9.87E+07
15566,-23.765,-46.003,-28.664,9.79E+07
15567,-20.486,-47.431,-29.191,2.79E+07
15568,-16.418,-47.505,-33.292,8.82E+07
15569,-17.614,-48.255,-31.748,5.71E+07
15570,-19.726,-48.277,-30.453,5.53E+07
15571,-17.478,-46.502,-30.68,2.58E+07
15572,-16.342,-46.252,-31.537,3.23E+07
15573,-18.471,-46.252,-30.375,2.20E+07
15574,-20.386,-44.926,-31.252,9.51E+07
15575,-18.069,-44.684,-32.666,9.13E+07
15576,-18.467,-47.431,-30.539,2.04E+07
15577,-11.932,-47.505,-35.15,7.78E+07
15578,-13.175,-48.257,-33.83,5.53E+07
15579,-15.444,-48.273,-32.837,5.46E+07
15580,-14.262,-48.252,-32.013,1.74E+07
15581,-13.086,-46.502,-32.792,2.73E+07
15582,-14.165,-46.252,-32.611,2.30E+07
15583,-15.886,-44.684,-33.781,8.70E+07
15584,-13.494,-44.582,-34.813,8.11E+07
15585,-13.049,-46.441,-33.876,4.89E+07
15586,-7.2417,-47.505,-36.406,6.68E+07
15587,-8.4954,-48.259,-35.295,5.09E+07
15588,-10.879,-48.27,-34.622,5.07E+07
15589,-8.4456,-46.502,-34.277,2.81E+07
15590,-7.223,-46.252,-34.754,3.36E+07
15591,-9.5931,-46.252,-34.239,2.47E+07
15592,-8.8547,-44.178,-36.301,6.58E+07
15593,-11.184,-44.582,-35.623,7.22E+07
15594,-6.9916,-45.604,-36.602,6.30E+07
15595,-10.75,-46.441,-34.657,3.92E+07
15596,-9.252,-44.873,-35.098,3.86E+07
15597,-9.7774,-47.256,-34.519,2.52E+07
15598,-7.3414,-47.315,-35.151,3.29E+07
15599,-3.6615,-48.261,-36.116,4.71E+07
15600,-6.1151,-48.266,-35.776,4.79E+07
15601,-4.8419,-46.252,-35.228,2.60E+07
15602,-4.61,-45.604,-36.977,5.76E+07
15603,-3.6338,-46.879,-36.102,3.44E+07
15604,-4.9603,-47.315,-35.625,2.86E+07
15605,7.2417,-47.505,-36.406,5.40E+07
15606,6.1151,-48.266,-35.776,5.03E+07
15607,3.6615,-48.261,-36.116,4.69E+07
15608,3.6452,-46.502,-35.106,2.70E+07
15609,2.4225,-46.252,-35.401,2.23E+07
15610,4.8419,-46.252,-35.228,2.28E+07
15611,5.0698,-44.276,-37.013,5.01E+07
15612,7.2272,-45.287,-36.58,4.79E+07
15613,11.932,-47.505,-35.15,5.13E+07
15614,10.879,-48.27,-34.622,4.63E+07
15615,8.4954,-48.259,-35.295,5.13E+07
15616,8.4456,-46.502,-34.277,2.91E+07
15617,9.5931,-46.252,-34.239,2.56E+07
15618,7.223,-46.252,-34.754,2.24E+07
15619,9.6292,-45.287,-36.022,4.62E+07
15620,9.8898,-47.36,-34.559,2.75E+07
15621,16.418,-47.505,-33.292,4.94E+07
15622,15.444,-48.273,-32.837,4.30E+07
15623,13.175,-48.257,-33.83,4.42E+07
15624,13.086,-46.502,-32.792,3.26E+07
15625,14.165,-46.252,-32.611,2.53E+07
15626,11.892,-46.252,-33.458,2.60E+07
15627,13.635,-44.427,-34.77,4.68E+07
15628,11.945,-45.287,-35.322,4.33E+07
15629,15.703,-44.286,-33.897,4.46E+07
15630,12.189,-47.36,-33.779,2.52E+07
15631,14.073,-47.458,-32.754,2.10E+07
15632,20.623,-47.505,-30.864,5.12E+07
15633,19.726,-48.277,-30.453,4.24E+07
15634,17.614,-48.255,-31.748,4.30E+07
15635,17.478,-46.502,-30.68,3.16E+07
15636,18.471,-46.252,-30.375,2.30E+07
15637,16.342,-46.252,-31.537,2.75E+07
15638,20.021,-44.689,-31.507,4.47E+07
15639,17.892,-44.286,-32.795,4.53E+07
15640,16.25,-47.458,-31.681,2.01E+07
15641,18.467,-47.431,-30.539,2.01E+07
15642,24.475,-47.505,-27.908,5.64E+07
15643,23.646,-48.281,-27.513,4.53E+07
15644,21.733,-48.254,-29.086,4.27E+07
15645,21.536,-46.502,-27.982,2.75E+07
15646,22.431,-46.252,-27.572,1.96E+07
15647,20.489,-46.252,-29.026,2.72E+07
15648,22.04,-44.689,-30.128,4.75E+07
15649,23.786,-44.684,-28.771,4.83E+07
15650,20.486,-47.431,-29.191,1.98E+07
15651,27.908,-47.505,-24.475,6.72E+07
15652,27.134,-48.286,-24.072,4.72E+07
15653,25.454,-48.253,-25.893,4.64E+07
15654,25.182,-46.502,-24.75,2.43E+07
15655,25.972,-46.252,-24.256,1.91E+07
15656,24.256,-46.252,-25.972,2.86E+07
15657,25.616,-44.684,-27.154,5.38E+07
15658,27.479,-44.843,-25.251,5.90E+07
15659,30.864,-47.505,-20.623,8.08E+07
15660,30.126,-48.291,-20.193,5.18E+07
15661,28.712,-48.253,-22.227,5.13E+07
15662,28.347,-46.502,-21.045,2.08E+07
15663,29.026,-46.252,-20.489,1.90E+07
15664,27.572,-46.252,-22.431,3.03E+07
15665,29.072,-44.843,-23.398,6.75E+07
15666,30.227,-45.783,-21.77,7.61E+07
15667,33.292,-47.505,-16.418,9.63E+07
15668,31.445,-48.252,-18.155,5.77E+07
15669,30.97,-46.502,-16.939,1.63E+07
15670,31.537,-46.252,-16.342,2.20E+07
15671,30.375,-46.252,-18.471,3.06E+07
15672,32.765,-44.564,-17.905,8.98E+07
15673,31.585,-45.783,-19.747,8.41E+07
15674,35.15,-47.505,-11.932,1.11E+08
15675,33.605,-48.253,-13.752,6.75E+07
15676,32.551,-48.291,-15.993,6.44E+07
15677,32.044,-46.502,-14.761,3.13E+07
15678,33,-46.502,-12.511,1.38E+07
15679,33.458,-46.252,-11.892,2.28E+07
15680,32.611,-46.252,-14.165,3.36E+07
15681,33.869,-44.564,-15.718,9.93E+07
15682,34.931,-44.933,-13.116,1.11E+08
15683,36.406,-47.505,-7.2417,1.26E+08
15684,35.151,-48.253,-9.0979,7.74E+07
15685,34.414,-48.286,-11.463,7.47E+07
15686,33.78,-46.502,-10.212,3.24E+07
15687,34.754,-46.252,-7.223,2.63E+07
15688,34.239,-46.252,-9.5931,3.38E+07
15689,36.373,-44.75,-8.3794,1.29E+08
15690,35.714,-44.933,-10.802,1.19E+08
15691,37.04,-47.505,-2.4277,1.37E+08
15692,36.055,-48.254,-4.2781,8.97E+07
15693,35.65,-48.281,-6.7216,8.67E+07
15694,35.14,-46.502,-3.0343,2.10E+07
15695,35.228,-46.252,-4.8419,3.70E+07
15696,36.842,-44.75,-5.9856,1.37E+08
15697,37.09,-45.579,-3.6147,1.43E+08
15698,37.04,-47.505,2.4277,1.44E+08
15699,36.302,-48.255,0.61951,1.00E+08
15700,36.235,-48.277,-1.8566,9.72E+07
15701,35.299,-46.502,-0.61174,3.90E+07
15702,35.209,-46.502,1.832,3.06E+07
15703,35.387,-46.252,2.4194,3.72E+07
15704,35.56,-46.252,3.83E-15,3.95E+07
15705,37.288,-45.007,1.1933,1.59E+08
15706,37.247,-45.579,-1.1795,1.47E+08
15707,36.406,-47.505,7.2417,1.47E+08
15708,35.885,-48.257,5.5054,1.11E+08
15709,36.159,-48.273,3.0436,1.07E+08
15710,35.051,-46.502,4.2545,4.17E+07
15711,35.228,-46.252,4.8419,4.23E+07
15712,37.13,-45.007,3.628,1.61E+08
15713,36.723,-45.49,6.3712,1.65E+08
15714,35.15,-47.505,11.932,1.46E+08
15715,34.814,-48.259,10.29,1.22E+08
15716,35.423,-48.27,7.8893,1.18E+08
15717,34.133,-46.502,9.0403,5.26E+07
15718,34.239,-46.252,9.5931,5.15E+07
15719,34.754,-46.252,7.223,5.18E+07
15720,35.941,-44.134,10.23,1.82E+08
15721,36.226,-45.49,8.7683,1.66E+08
15722,33.292,-47.505,16.418,1.42E+08
15723,33.108,-48.261,14.887,1.25E+08
15724,34.04,-48.266,12.592,1.26E+08
15725,32.563,-46.502,13.654,6.51E+07
15726,32.611,-46.252,14.165,6.57E+07
15727,33.458,-46.252,11.892,5.67E+07
15728,34.358,-44.608,14.611,1.78E+08
15729,35.198,-44.134,12.55,1.80E+08
15730,30.864,-47.505,20.623,1.32E+08
15731,30.797,-48.263,19.211,1.22E+08
15732,32.036,-48.263,17.066,1.25E+08
15733,30.371,-46.502,18.006,8.64E+07
15734,30.375,-46.252,18.471,8.75E+07
15735,31.537,-46.252,16.342,6.77E+07
15736,31.537,-45.377,16.342,6.91E+07
15737,30.375,-45.377,18.471,7.50E+07
15738,33.334,-44.608,16.817,1.74E+08
15739,31.276,-44.814,20.364,1.58E+08
15740,32.324,-44.175,18.744,1.77E+08
15741,27.908,-47.505,24.475,1.38E+08
15742,27.925,-48.266,23.184,1.15E+08
15743,29.446,-48.261,21.229,1.19E+08
15744,27.599,-46.502,22.013,9.60E+07
15745,27.572,-46.252,22.431,9.52E+07
15746,29.026,-46.252,20.489,7.61E+07
15747,29.872,-44.814,22.371,1.52E+08
15748,28.381,-45.054,24.208,1.50E+08
15749,24.475,-47.505,27.908,1.73E+08
15750,24.544,-48.27,26.733,1.17E+08
15751,26.319,-48.259,25.005,1.18E+08
15752,24.301,-46.502,25.599,9.78E+07
15753,24.256,-46.252,25.972,9.25E+07
15754,25.972,-46.252,24.256,7.94E+07
15755,26.737,-45.054,26.013,1.62E+08
15756,25.149,-45.618,27.496,1.73E+08
15757,20.623,-47.505,30.864,2.09E+08
15758,20.716,-48.273,29.793,1.25E+08
15759,22.71,-48.257,28.325,1.28E+08
15760,20.489,-46.252,29.026,7.60E+07
15761,22.431,-46.252,27.572,7.33E+07
15762,21.367,-44.564,30.62,2.06E+08
15763,23.296,-45.618,29.083,1.96E+08
15764,21.624,-47.377,28.508,7.59E+07
15765,16.418,-47.505,33.292,2.23E+08
15766,16.51,-48.277,32.309,1.31E+08
15767,18.687,-48.255,31.128,1.33E+08
15768,16.342,-46.252,31.537,5.41E+07
15769,18.471,-46.252,30.375,4.85E+07
15770,16.342,-45.377,31.537,3.83E+07
15771,19.321,-44.564,31.951,2.20E+08
15772,17.278,-43.376,33.193,2.17E+08
15773,17.538,-47.377,31.183,6.06E+07
15774,11.932,-47.505,35.15,2.05E+08
15775,12.004,-48.281,34.235,1.28E+08
15776,14.323,-48.254,33.364,1.33E+08
15777,14.165,-46.252,32.611,2.45E+07
15778,14.165,-45.377,32.611,2.24E+07
15779,13.357,-44.568,34.867,2.18E+08
15780,15.075,-43.376,34.25,2.17E+08
15781,13.065,-47.303,34.129,1.52E+08
15782,13.448,-47.473,33.159,5.74E+07
15783,7.2417,-47.505,36.406,1.74E+08
15784,7.2802,-48.286,35.535,1.18E+08
15785,9.6964,-48.253,34.99,1.22E+08
15786,7.223,-46.252,34.754,3.79E+07
15787,9.5931,-46.252,34.239,1.82E+07
15788,9.5931,-45.377,34.239,3.49E+07
15789,7.223,-45.377,34.754,3.77E+07
15790,11.043,-44.568,35.668,2.00E+08
15791,8.0039,-44.727,36.459,1.79E+08
15792,8.3773,-47.41,35.126,9.90E+07
15793,10.766,-47.303,34.91,1.36E+08
15794,2.3748,-48.252,36.232,1.19E+08
15795,4.8929,-48.253,35.978,1.20E+08
15796,4.8614,-46.502,34.973,3.46E+07
15797,4.8419,-46.252,35.228,2.87E+07
15798,4.8419,-45.377,35.228,4.40E+07
15799,5.6127,-44.728,36.902,1.64E+08
15800,3.5262,-46.009,37.066,1.50E+08
15801,3.8948,-47.274,36.054,1.03E+08
15802,5.9962,-47.41,35.6,9.50E+07
15803,4.9543,-23.099,-38.222,1.14E+08
15804,5.0865,-27.159,-37.848,6.67E+07
15805,2.8984,-23.078,-38.418,1.19E+08
15806,3.2979,-22.905,-36.95,1.12E+08
15807,3.9369,-25.252,-36.369,1.13E+08
15808,5.4658,-23.734,-36.392,1.13E+08
15809,5.9733,-25.972,-36.065,1.08E+08
15810,22.945,-2.0821,30.394,8.36E+08
15811,21.823,1.61E-11,31.183,9.26E+08
15812,21.604,4.85E-05,29.643,7.55E+08
15813,22.988,-22.917,30.61,3.45E+08
15814,21.673,-23.948,31.634,3.62E+08
15815,21.242,-26.688,30.037,2.45E+08
15816,22.48,-23.559,29.129,2.63E+08
15817,23.165,-26.235,28.372,2.73E+08
15818,20.944,-24.78,30.198,2.44E+08
15819,23,-18.749,30.66,4.10E+08
15820,21.68,-21.858,31.671,3.90E+08
15821,21.751,-19.856,31.64,4.25E+08
15822,21.316,-19.781,30.014,2.83E+08
15823,22.489,-21.475,29.166,2.78E+08
15824,23.206,-19.699,28.707,2.85E+08
15825,23.002,-14.582,30.663,5.03E+08
15826,20.675,-15.387,32.604,5.20E+08
15827,21.643,-13.955,31.742,5.69E+08
15828,21.756,-17.766,31.652,4.68E+08
15829,20.787,-15.568,30.631,3.64E+08
15830,21.32,-17.697,30.028,3.16E+08
15831,22.581,-15.751,29.022,3.45E+08
15832,23.21,-17.615,28.72,3.17E+08
15833,22.994,-10.414,30.619,6.18E+08
15834,21.635,-11.864,31.726,6.23E+08
15835,20.785,-13.484,30.62,4.13E+08
15836,21.802,-11.643,29.551,4.48E+08
15837,22.58,-13.667,29.012,3.93E+08
15838,22.974,-6.2474,30.53,7.49E+08
15839,20.812,-7.555,32.36,7.52E+08
15840,21.633,-9.7734,31.692,6.85E+08
15841,21.407,-5.9793,31.785,8.24E+08
15842,21.795,-9.5597,29.517,5.10E+08
15843,22.251,-5.9042,29.403,6.21E+08
15844,21.128,-7.6944,30.144,5.71E+08
15845,23.151,-7.3459,28.411,5.51E+08
15846,21.836,-2.0902,31.272,8.99E+08
15847,21.394,-3.8883,31.722,8.93E+08
15848,21.622,-2.0823,29.723,7.24E+08
15849,22.239,-3.8211,29.346,6.94E+08
15850,4.8378,-29.832,37.799,1.66E+08
15851,1.3266,-29.832,38.084,2.11E+08
15852,2.6814,-27.97,38.442,2.50E+08
15853,1.0649,-31.767,38.022,1.71E+08
15854,3.4399,-32.566,37.85,1.59E+08
15855,2.0143,-28.649,36.804,1.45E+08
15856,2.7034,-31.124,36.532,1.29E+08
15857,9.1545,-29.832,36.991,1.19E+08
15858,4.8474,-27.996,38.217,2.37E+08
15859,8.2306,-32.786,37.095,1.34E+08
15860,5.6085,-32.567,37.59,1.40E+08
15861,8.1661,-28.256,37.54,1.46E+08
15862,7.243,-29.261,34.286,1.61E+08
15863,4.9129,-29.23,34.667,8.38E+07
15864,4.1924,-28.649,36.525,1.29E+08
15865,5.9396,-27.262,36.46,1.19E+08
15866,4.8814,-31.124,36.254,1.10E+08
15867,7.3251,-31.138,35.763,1.03E+08
15868,13.35,-29.832,35.692,1.51E+08
15869,10.358,-32.786,36.558,1.37E+08
15870,12.503,-32.499,35.893,1.52E+08
15871,10.285,-28.256,37.016,1.23E+08
15872,9.3745,-29.261,33.758,1.36E+08
15873,11.981,-27.874,35.132,9.89E+07
15874,9.4567,-31.138,35.236,7.15E+07
15875,11.968,-30.921,34.572,8.03E+07
15876,17.368,-29.832,33.92,2.34E+08
15877,16.629,-32.539,34.176,2.02E+08
15878,14.554,-32.499,35.111,1.87E+08
15879,14.038,-27.874,34.363,1.35E+08
15880,15.976,-28.902,33.263,1.50E+08
15881,16.575,-31.087,32.668,1.44E+08
15882,14.025,-30.921,33.802,1.11E+08
15883,18.572,-32.539,33.16,2.37E+08
15884,20.836,-32.009,31.812,2.46E+08
15885,17.931,-28.902,32.262,1.94E+08
15886,19.399,-29.104,31.184,2.17E+08
15887,18.529,-31.087,31.667,1.89E+08
15888,-1.3266,-29.832,38.084,2.33E+08
15889,-4.7675,-29.832,37.808,2.34E+08
15890,-2.6814,-27.97,38.442,2.69E+08
15891,-1.5675,-31.767,38.005,1.91E+08
15892,-3.5281,-31.651,37.878,2.01E+08
15893,-1.8218,-30.542,36.49,1.50E+08
15894,-3.1534,-29.334,36.623,1.56E+08
15895,-1.3418,-27.974,38.514,2.71E+08
15896,1.3418,-27.974,38.514,2.63E+08
15897,-0.24904,-31.766,38.037,1.87E+08
15898,-0.49593,-30.542,36.537,1.49E+08
15899,0.6885,-28.649,36.85,1.60E+08
15900,-1.8276,-29.334,36.669,1.55E+08
15901,1.3775,-31.124,36.579,1.46E+08
15902,-8.9482,-29.832,37.042,1.84E+08
15903,-11,-27.416,36.563,1.29E+08
15904,-11,-28.159,36.882,1.70E+08
15905,-9.804,-32.643,36.716,1.45E+08
15906,-12.88,-30.463,35.841,1.32E+08
15907,-12.408,-28.452,36.077,1.27E+08
15908,-11.14,-29.224,33.216,1.19E+08
15909,-8.81,-29.188,33.896,8.82E+07
15910,-11.492,-27.473,34.875,9.41E+07
15911,-9.1184,-27.691,35.809,9.36E+07
15912,-9.2879,-30.717,35.329,9.12E+07
15913,-11.438,-31.529,34.66,7.94E+07
15914,-12.94,-29.471,34.258,8.29E+07
15915,-8.8813,-28.173,37.411,2.16E+08
15916,-4.7779,-27.994,38.227,2.59E+08
15917,-7.7431,-32.644,37.205,1.88E+08
15918,-5.6308,-31.652,37.623,1.96E+08
15919,-7.0527,-27.691,36.308,1.44E+08
15920,-7.2222,-30.717,35.828,1.36E+08
15921,-5.2619,-29.334,36.357,1.51E+08
15922,-11,-23.122,36.663,1.55E+08
15923,-11,-23.954,38.254,1.64E+08
15924,-11,-25.847,37.205,1.87E+08
15925,-12.726,-24.226,36.078,1.16E+08
15926,-12.41,-26.036,36.146,1.14E+08
15927,-11.492,-25.057,34.945,1.31E+08
15928,-10.07,-22.633,35.448,1.40E+08
15929,-9.1184,-25.275,35.879,1.06E+08
15930,-9.2836,-23.272,37.459,1.24E+08
15931,-11,-20.24,37.895,1.49E+08
15932,-11,-22.076,38.287,1.63E+08
15933,-12.727,-22.348,36.112,1.26E+08
15934,-12.373,-21.218,34.5,1.83E+08
15935,-11.492,-23.179,34.978,1.50E+08
15936,-10.07,-20.755,35.482,1.60E+08
15937,-9.2836,-21.394,37.492,1.29E+08
15938,-11.347,-19.279,34.902,2.04E+08
15939,-50.676,0,-59.183,1.33E+06
15940,-50.107,-0.5,-62.561,1.54E+06
15941,-50.446,-0.5,-60.179,1.87E+06
15942,-48.53,-1.73E-11,-59.85,2.17E+06
15943,-48.998,-1.8375,-61.068,1.93E+06
15944,-52.236,0,-55.073,1.13E+06
15945,-51.004,-0.5,-58.05,1.98E+06
15946,-51.878,-0.5,-55.809,1.78E+06
15947,-49.08,-1.73E-11,-57.722,2.17E+06
15948,-50.002,-1.80E-11,-55.518,2.20E+06
15949,-50.141,-1.7714,-56.775,2.30E+06
15950,-54.655,0,-51.404,1.22E+06
15951,-52.908,-0.5,-53.864,1.78E+06
15952,-54.27,-0.5,-51.882,1.78E+06
15953,-51.002,-1.80E-11,-53.561,1.95E+06
15954,-51.966,-1.87E-11,-51.904,1.77E+06
15955,-52.906,-1.4851,-52.504,2.14E+06
15956,-57.818,0,-48.351,1.37E+06
15957,-55.717,-0.5,-50.223,1.95E+06
15958,-57.497,-0.5,-48.605,1.97E+06
15959,-53.467,-1.88E-11,-48.407,2.04E+06
15960,-56.27,-2.08E-11,-47.427,1.82E+06
15961,-53.37,-1.87E-11,-50.214,1.66E+06
15962,-55.79,-1.8785,-48.579,2.55E+06
15963,-61.571,0,-46.063,1.66E+06
15964,-59.284,-0.5,-47.32,2.21E+06
15965,-61.386,-0.5,-46.151,2.29E+06
15966,-60.065,-2.24E-11,-44.649,2.16E+06
15967,-58.009,-2.08E-11,-46.084,2.12E+06
15968,-59.208,-1.7813,-45.617,2.66E+06
15969,-65.733,-0.5,-44.651,2.40E+06
15970,-63.42,-0.5,-45.309,2.35E+06
15971,-62.056,-2.24E-11,-43.718,2.26E+06
15972,-50.237,-1,-61.389,2.09E+06
15973,-51.621,-1,-65.018,1.25E+06
15974,-52.015,-1,-62.628,1.55E+06
15975,-48.899,-2.3375,-62.29,2.26E+06
15976,-50.73,-2.4158,-63.385,1.54E+06
15977,-65.534,-1,-44.696,3.37E+06
15978,-68.572,-1.0961,-44.235,4.05E+06
15979,-69.27,-1,-45.758,3.37E+06
15980,-66.125,-0.73397,-41.588,4.80E+06
15981,-66.898,-1,-46.487,2.88E+06
15982,-65.731,-1.9677,-43.988,3.70E+06
15983,-67.392,-2.5468,-45.308,3.24E+06
15984,-51.474,-1,-56.749,2.14E+06
15985,-48.766,-0.5,-58.695,2.79E+06
15986,-52.35,-1,-60.251,1.91E+06
15987,-53.022,-1,-57.935,1.52E+06
15988,-49.828,-2.2714,-57.748,2.79E+06
15989,-49.234,-2.3375,-59.913,2.55E+06
15990,-51.065,-2.4158,-61.007,1.91E+06
15991,-51.917,-2.7792,-59.081,2.05E+06
15992,-53.78,-1,-52.537,2.11E+06
15993,-50.58,-0.5,-54.262,2.57E+06
15994,-54.557,-1,-54.049,1.63E+06
15995,-53.914,-1,-55.706,1.53E+06
15996,-50.72,-2.2714,-55.519,2.66E+06
15997,-52.484,-1.9851,-53.205,2.64E+06
15998,-52.81,-2.7792,-56.852,2.01E+06
15999,-53.769,-2.7371,-54.915,2.16E+06
16000,-57.025,-1,-48.997,2.34E+06
16001,-53.039,-0.5,-48.847,2.63E+06
16002,-52.942,-0.5,-50.653,2.25E+06
16003,-57.887,-1,-50.819,2.05E+06
16004,-55.955,-1,-52.097,1.97E+06
16005,-55.362,-2.3785,-49.019,3.07E+06
16006,-53.881,-1.9851,-51.253,2.71E+06
16007,-56.34,-2.5163,-51.275,2.56E+06
16008,-61.019,-1,-46.332,2.70E+06
16009,-57.664,-0.5,-46.304,2.60E+06
16010,-59.709,-1,-49.257,2.41E+06
16011,-58.863,-2.2813,-45.837,3.21E+06
16012,-57.185,-2.3785,-47.456,3.08E+06
16013,-58.163,-2.5163,-49.712,2.54E+06
16014,-60.232,-2.5749,-48.051,2.85E+06
16015,-61.863,-0.5,-43.786,3.14E+06
16016,-61.852,-1,-48.173,2.39E+06
16017,-64.559,-1,-47.028,2.74E+06
16018,-63.392,-1.9677,-44.529,3.58E+06
16019,-61.006,-2.2813,-44.754,3.31E+06
16020,-65.053,-2.5468,-45.849,3.04E+06
16021,-62.375,-2.5749,-46.968,2.85E+06
16022,-69.934,-1.0986,-45.686,3.66E+06
16023,-70.178,-2.5675,-47.026,3.16E+06
16024,-68.03,-2.7376,-45.26,3.54E+06
16025,-13.219,-9.77E-12,48.903,9.05E+08
16026,-11.092,-1.23E-11,48.428,1.13E+09
16027,-12.284,-0.11602,49.813,1.33E+09
16028,-9.3575,1.5501,50.514,8.91E+08
16029,-9.8906,-0.7171,49.923,9.42E+08
16030,-12.427,-1.0277,48.474,9.95E+08
16031,-11.722,-1.2652,49.603,1.05E+09
16032,-17.891,-1.32E-11,49.566,5.53E+08
16033,-19.355,-0.11418,51.427,4.34E+08
16034,-21.317,-1.34E-11,52.748,3.34E+08
16035,-22.321,-1.65E-11,50.003,3.53E+08
16036,-20.881,-1.54E-11,47.973,3.39E+08
16037,-21.012,-1.4192,51.083,3.29E+08
16038,-18.944,-1.2914,49.925,4.10E+08
16039,-17.322,-0.27745,50.247,5.21E+08
16040,-13.411,-9.98E-12,47.906,6.29E+08
16041,-14.412,-0.12999,49.357,1.12E+09
16042,-15.706,-0.15796,49.503,8.50E+08
16043,-18.797,-1.39E-11,46.858,5.40E+08
16044,-15.949,-1.18E-11,46.899,6.27E+08
16045,-16.86,-1.2914,48.811,6.10E+08
16046,-14.724,-1.0277,47.951,6.40E+08
16047,-18.752,-0.92597,51.97,4.37E+08
16048,-16.952,-1.3343,50.76,7.01E+08
16049,-20.272,-1.5,53.829,2.81E+08
16050,-18.932,-3.2525,52.341,3.06E+08
16051,-17.369,-1.0067,50.894,6.06E+08
16052,-20.455,-2.1692,51.585,3.13E+08
16053,-18.387,-2.0414,50.427,3.58E+08
16054,-20.357,-0.92597,53.752,2.95E+08
16055,-20.891,-0.11418,53.132,3.56E+08
16056,-17.505,-0.52661,50.657,6.33E+08
16057,-20.618,-1.6389,51.438,3.32E+08
16058,-18.55,-1.5111,50.28,3.85E+08
16059,-17.157,-3.1272,51.049,6.57E+08
16060,-14.902,-4.0046,50.756,9.13E+08
16061,-14.171,-0.7776,50.081,1.36E+09
16062,-15.32,-0.87283,50.148,1.08E+09
16063,-16.494,-1.8739,49.51,8.50E+08
16064,-15.231,-3.2657,48.42,7.42E+08
16065,-14.357,-1.6102,48.65,8.79E+08
16066,-13.652,-1.8476,49.779,9.02E+08
16067,-38.09,-9.61E-02,72.166,6.56E+07
16068,-36.231,-0.43934,70.897,9.18E+07
16069,-36.673,-1.22E-12,69.802,1.01E+08
16070,-38.814,0,69.18,6.83E+07
16071,-38.209,-0.5,71.508,1.03E+08
16072,-37.946,-0.85961,73.243,8.50E+07
16073,-36.321,-1.5,71.653,1.01E+08
16074,-37.926,-2,73.436,1.03E+08
16075,-37.961,-1.4408,73.104,1.24E+08
16076,-36.27,-0.88738,71.401,8.47E+07
16077,-38.095,-0.6908,72.138,1.00E+08
16078,-38.002,-0.88161,72.772,9.89E+07
16079,-33.111,-1.5,68.088,1.15E+08
16080,-34.696,-0.43934,69.192,1.26E+08
16081,-36.321,-2,71.653,1.08E+08
16082,-36.462,-1.25,70.689,1.24E+08
16083,-36.359,-1.4408,71.321,1.23E+08
16084,-37.205,-1.25,68.406,1.20E+08
16085,-33.979,-4.25,69.052,5.01E+07
16086,-35.451,-3.3124,70.687,7.16E+07
16087,-35.148,-2.4168,67.844,9.47E+07
16088,-37.424,-3.068,69.872,7.86E+07
16089,-29.901,-1.5,64.524,1.17E+08
16090,-31.555,-0.43934,65.704,1.33E+08
16091,-33.091,-0.43934,67.409,1.24E+08
16092,-32.374,-4.25,67.269,5.15E+07
16093,-30.802,-4.25,65.523,5.15E+07
16094,-31.871,-2.3604,64.119,9.76E+07
16095,-33.543,-2.4168,66.061,9.38E+07
16096,-26.692,-1.5,60.959,1.26E+08
16097,-28.415,-0.43934,62.216,1.47E+08
16098,-29.95,-0.43934,63.921,1.37E+08
16099,-27.624,-4.25,61.994,4.92E+07
16100,-29.197,-4.25,63.741,5.48E+07
16101,-28.662,-2.7871,60.48,9.56E+07
16102,-30.266,-2.3604,62.336,1.01E+08
16103,-23.482,-1.5,57.394,1.39E+08
16104,-25.274,-0.43934,58.728,1.67E+08
16105,-26.81,-0.43934,60.434,1.52E+08
16106,-26.019,-4.25,60.212,5.22E+07
16107,-24.832,-4.25,58.893,4.60E+07
16108,-25.479,-2.9354,56.797,1.05E+08
16109,-27.057,-2.7871,58.698,1.00E+08
16110,-22.134,-0.43934,55.24,2.06E+08
16111,-23.67,-0.43934,56.946,1.76E+08
16112,-20.505,-3.2622,54.087,1.68E+08
16113,-21.798,-4.2242,55.524,5.45E+07
16114,-23.227,-4.25,57.111,5.02E+07
16115,-22.06,-2.1692,53.368,1.73E+08
16116,-23.874,-2.9354,55.014,1.11E+08
16117,-24.388,-1.10E-11,56.159,2.34E+08
16118,-23.857,-1.53E-11,51.708,2.58E+08
16119,-25.383,-1.64E-11,53.508,2.51E+08
16120,-22.548,-1.4192,52.789,2.34E+08
16121,-24.362,-2.1854,54.436,1.70E+08
16122,-27.46,-8.53E-12,59.57,1.89E+08
16123,-26.918,-1.52E-11,55.213,2.19E+08
16124,-28.557,-1.64E-11,57.178,2.01E+08
16125,-25.898,-2.1854,56.141,1.39E+08
16126,-27.476,-2.0371,58.042,1.35E+08
16127,-27.813,-1.6895,55.73,1.53E+08
16128,-30.531,-6.09E-12,62.981,1.63E+08
16129,-30.093,-1.52E-11,58.883,1.86E+08
16130,-31.723,-1.64E-11,60.842,1.70E+08
16131,-29.012,-2.0371,59.747,1.20E+08
16132,-30.616,-1.6104,61.603,1.26E+08
16133,-33.602,-3.66E-12,66.392,1.45E+08
16134,-33.259,-1.52E-11,62.547,1.61E+08
16135,-33.856,-1.56E-11,64.585,1.50E+08
16136,-32.151,-1.6104,63.309,1.16E+08
16137,-33.823,-1.6668,65.251,1.13E+08
16138,-37.416,-1.22E-12,67.519,9.77E+07
16139,-36.673,-0.5,69.802,1.30E+08
16140,-37.416,-0.5,67.519,1.26E+08
16141,-35.391,-1.44E-11,66.291,1.42E+08
16142,-35.358,-1.6668,66.957,1.03E+08
16143,37.975,0,1.3795,1.38E+08
16144,38.084,-2.1881,0,1.71E+08
16145,36.529,1.30E-11,-1.5223,1.49E+08
16146,36.691,1.31E-11,0.57048,1.45E+08
16147,37.811,-0.75966,-1.0664,1.68E+08
16148,36.779,-0.598,2.0592,1.41E+08
16149,38.058,-2.1881,1.3821,1.19E+08
16150,37.812,0,3.7765,8.65E+07
16151,36.641,1.31E-11,1.9491,8.83E+07
16152,36.729,-0.598,3.4378,8.52E+07
16153,23,1.53E-11,-40.155,2.91E+08
16154,20.6,1.52E-11,-37.984,3.06E+08
16155,22.051,0.1544,-38.933,3.03E+08
16156,25.616,1.89E-11,-38.411,2.48E+08
16157,21.699,1.60E-11,-36.118,2.67E+08
16158,23.93,1.77E-11,-36.037,2.58E+08
16159,22.184,-1.5535,-38.894,2.37E+08
16160,24.26,-1.8722,-39.73,2.29E+08
16161,22.065,-2.2009,-36.24,2.35E+08
16162,24.902,-1.6245,-37.482,2.36E+08
16163,23.315,-3.7083,-37.698,2.15E+08
16164,23,1.19E-11,-44.495,3.02E+08
16165,22.027,0.16233,-41.075,3.04E+08
16166,25.667,1.73E-11,-43.402,2.38E+08
16167,25.616,1.72E-11,-40.581,2.48E+08
16168,21.748,0.27396,-44.012,3.52E+08
16169,22.184,-1.5535,-41.064,2.38E+08
16170,24.26,-1.8722,-41.9,2.29E+08
16171,21.957,-1.5849,-43.519,2.51E+08
16172,20.231,-1.5535,-41.98,2.35E+08
16173,23.86,-2.281,-43.721,2.26E+08
16174,23,8.50E-12,-48.835,3.14E+08
16175,25.667,1.56E-11,-45.572,2.47E+08
16176,25.313,1.53E-11,-47.516,2.43E+08
16177,21.748,0.27396,-46.182,3.61E+08
16178,23.868,-1.758,-47.725,2.45E+08
16179,21.957,-1.5849,-45.69,2.61E+08
16180,21.5,-1.612,-48.089,2.58E+08
16181,23.86,-2.281,-45.891,2.36E+08
16182,23,5.10E-12,-53.175,3.00E+08
16183,25.667,1.39E-11,-51.517,2.28E+08
16184,25.313,1.36E-11,-49.686,2.43E+08
16185,21.748,0.27396,-48.352,3.58E+08
16186,21.813,0.24498,-52.09,3.56E+08
16187,23.868,-1.758,-49.895,2.45E+08
16188,24.888,-2.2157,-52.322,2.11E+08
16189,22.289,-1.7824,-52.221,2.44E+08
16190,21.5,-1.612,-50.259,2.59E+08
16191,25.667,1.22E-11,-53.687,2.13E+08
16192,26.333,1.27E-11,-55.601,1.91E+08
16193,21.813,0.24498,-54.26,3.43E+08
16194,23.316,-2.9655,-55.841,1.87E+08
16195,24.019,-1.0857,-56.867,1.95E+08
16196,24.888,-2.2157,-54.493,1.98E+08
16197,22.289,-1.7824,-54.391,2.31E+08
16198,21.703,-0.92724,-56.579,2.39E+08
16199,-17.803,-1.32E-11,-37.984,5.37E+08
16200,-20.102,-1.52E-11,-39.334,7.87E+08
16201,-20.123,0.15801,-38.899,8.69E+08
16202,-23.078,-1.71E-11,-37.216,4.73E+08
16203,-21.195,-1.57E-11,-34.812,4.89E+08
16204,-18.78,-1.39E-11,-35.464,4.81E+08
16205,-21.453,-1.59E-11,-39.429,5.23E+08
16206,-20.9,-1.1146,-39.784,5.49E+08
16207,-19.204,-0.84588,-38.658,5.04E+08
16208,-19.709,-1.7832,-36.342,4.87E+08
16209,-21.609,-1.5575,-38.031,5.11E+08
16210,-13.003,-9.61E-12,-37.984,3.20E+08
16211,-17.728,0.14441,-38.904,7.99E+08
16212,-13.947,-1.03E-11,-35.854,2.82E+08
16213,-16.38,-1.21E-11,-35.464,3.47E+08
16214,-17.01,0.52155,-39.675,4.02E+08
16215,-16.804,-0.84588,-38.658,3.85E+08
16216,-16.239,7.26E-02,-40.606,3.94E+08
16217,-14.81,-1.8677,-37.377,2.99E+08
16218,-13.943,-0.998,-39.678,2.76E+08
16219,-17.309,-1.7832,-36.342,3.57E+08
16220,-15.639,-1.7111,-39.174,2.92E+08
16221,-8.2024,-6.06E-12,-37.984,1.61E+08
16222,-11.547,-8.54E-12,-35.854,1.78E+08
16223,-9.1656,-6.78E-12,-36.116,1.29E+08
16224,-10.365,-2.0854,-35.859,1.38E+08
16225,-12.41,-1.8677,-37.377,1.91E+08
16226,-9.2793,-1.071,-39.67,1.54E+08
16227,-11.543,-0.998,-39.678,1.79E+08
16228,-9.9187,-2.3104,-37.951,1.43E+08
16229,-3.402,-2.51E-12,-37.984,8.69E+07
16230,-6.7654,-5.00E-12,-36.116,7.79E+07
16231,-4.3728,-3.23E-12,-36.395,6.36E+07
16232,-5.4241,-2.092,-36.637,7.26E+07
16233,-6.8791,-1.071,-39.67,1.10E+08
16234,-4.8919,-0.6267,-40.238,1.07E+08
16235,-7.5185,-2.3104,-37.951,9.70E+07
16236,-4.4936,-2.0105,-38.708,8.64E+07
16237,1.3984,1.03E-12,-37.984,6.79E+07
16238,-1.9726,-1.46E-12,-36.395,4.22E+07
16239,0.44872,3.32E-13,-36.488,4.60E+07
16240,5.83E-02,-1.7461,-37.776,5.92E+07
16241,-0.53641,-0.56139,-40.378,8.61E+07
16242,-2.4917,-0.6267,-40.238,9.16E+07
16243,-2.0934,-2.0105,-38.708,7.01E+07
16244,6.1987,4.58E-12,-37.984,1.14E+08
16245,5.2702,3.90E-12,-36.395,8.07E+07
16246,2.8489,2.11E-12,-36.488,5.55E+07
16247,2.4585,-1.7461,-37.776,6.71E+07
16248,4.0172,-0.43573,-40.178,1.02E+08
16249,5.5442,-2.1013,-37.242,8.19E+07
16250,1.8638,-0.56139,-40.378,9.80E+07
16251,4.596,-1.9937,-38.644,8.54E+07
16252,4.0148,-1.8689,-36.182,6.72E+07
16253,10.999,8.13E-12,-37.984,1.95E+08
16254,10.063,7.44E-12,-36.116,1.48E+08
16255,7.6704,5.67E-12,-36.395,1.14E+08
16256,6.4174,-0.43573,-40.178,1.37E+08
16257,7.9444,-2.1013,-37.242,1.16E+08
16258,10.629,-0.53589,-40.297,1.65E+08
16259,8.2756,-0.31882,-40.378,1.52E+08
16260,9.7202,-1.7235,-37.456,1.35E+08
16261,6.9962,-1.9937,-38.644,1.19E+08
16262,9.1912,-2.5956,-39.658,1.37E+08
16263,15.799,1.17E-11,-37.984,2.87E+08
16264,14.799,1.09E-11,-35.658,2.19E+08
16265,12.463,9.21E-12,-36.116,1.92E+08
16266,13.029,-0.53589,-40.297,2.11E+08
16267,14.291,-1.8811,-37.015,2.01E+08
16268,12.12,-1.7235,-37.456,1.80E+08
16269,15.431,-1.5535,-39.81,2.08E+08
16270,13.689,-3.012,-39.28,1.84E+08
16271,19.679,0.16233,-38.958,3.28E+08
16272,17.199,1.27E-11,-35.658,2.63E+08
16273,19.298,1.43E-11,-36.118,2.84E+08
16274,19.783,-1.5535,-38.894,2.54E+08
16275,16.692,-1.8811,-37.015,2.45E+08
16276,17.831,-1.5535,-39.81,2.52E+08
16277,19.665,-2.2009,-36.24,2.56E+08
16278,18.473,-3.2367,-38.129,2.37E+08
16279,-20.011,-1.43E-11,-41.451,9.71E+08
16280,-20.043,0.28925,-40.213,1.05E+09
16281,-20.008,0.50179,-41.191,7.12E+08
16282,-21.368,-1.58E-11,-40.779,6.33E+08
16283,-20.815,-1.1146,-41.135,6.68E+08
16284,-19.119,-0.84588,-40.008,6.26E+08
16285,-19.505,0.15445,-41.335,7.15E+08
16286,-20.442,-0.69805,-41.425,7.72E+08
16287,-20,-1.74E-11,-42.332,9.98E+08
16288,-20,0.50493,-41.962,7.30E+08
16289,-21.351,-8.39E-12,-41.545,6.59E+08
16290,-19.489,0.15445,-42.1,7.47E+08
16291,-20.426,-0.69805,-42.191,8.00E+08
16292,-20,0.50866,-42.077,6.90E+08
16293,-20.365,-0.75873,-43.166,5.99E+08
16294,-21.351,-1.74E-11,-41.66,7.14E+08
16295,-20,1.4161,-43.289,5.84E+08
16296,-19.488,0.15445,-42.215,7.41E+08
16297,-20.426,-0.69805,-42.306,8.34E+08
16298,-52.047,0,56.224,5.85E+07
16299,-54.387,-0.5,55.668,9.38E+07
16300,-52.047,-0.5,56.224,9.91E+07
16301,-52.157,-1.85E-11,54.549,9.94E+07
16302,-53.666,-1.96E-11,53.299,1.01E+08
16303,-47.65,0,58.155,5.80E+07
16304,-49.79,-0.5,57.057,9.10E+07
16305,-47.65,-0.5,58.155,9.20E+07
16306,-49.859,-1.85E-11,55.243,9.06E+07
16307,-47.676,-1.68E-11,56.202,9.17E+07
16308,-43.84,0,61.078,5.73E+07
16309,-45.657,-0.5,59.501,9.37E+07
16310,-43.84,-0.5,61.078,9.19E+07
16311,-45.61,-1.68E-11,57.424,9.31E+07
16312,-43.694,-1.54E-11,58.947,9.40E+07
16313,-40.837,0,64.825,5.89E+07
16314,-42.226,-0.5,62.861,9.00E+07
16315,-40.837,-0.5,64.825,8.48E+07
16316,-40.488,-1.43E-11,62.487,9.25E+07
16317,-41.979,-1.54E-11,60.627,9.14E+07
16318,-38.814,-0.5,69.18,9.97E+07
16319,-39.694,-0.5,66.941,9.52E+07
16320,-39.222,-1.43E-11,64.527,1.04E+08
16321,-37.67,-1.32E-11,65.713,1.04E+08
16322,-11.365,-6.28E-12,45.573,8.81E+08
16323,-11.69,-8.88E-12,43.321,8.71E+08
16324,-13.922,-6.02E-12,44.568,5.94E+08
16325,-10.71,0.18365,42.662,6.87E+08
16326,-10.172,1.5681,44.361,6.73E+08
16327,-12.363,-1.758,43.967,6.34E+08
16328,-10.197,-1.3748,44.39,5.40E+08
16329,-12.696,-1.0277,45.621,7.17E+08
16330,-13.746,-1.02E-11,45.991,5.92E+08
16331,-9.9965,1.5681,45.784,6.55E+08
16332,-11.203,-2.3847,47.45,5.51E+08
16333,-9.9836,-0.7171,48.492,6.65E+08
16334,-8.5095,0.31081,47.35,6.39E+08
16335,-10.021,-1.3748,45.813,5.28E+08
16336,-12.52,-1.0277,47.043,7.12E+08
16337,-11.815,-1.2652,48.173,7.72E+08
16338,-14.058,-1.04E-11,43.738,5.96E+08
16339,-13.797,-1.02E-11,41.057,5.84E+08
16340,-10.845,0.18365,41.831,6.69E+08
16341,-12.499,-1.758,43.137,6.21E+08
16342,-12.731,-1.4913,40.549,6.15E+08
16343,-10.333,-1.3748,43.559,5.30E+08
16344,-11.171,-1.9679,41.373,5.53E+08
16345,18.558,2.82E-11,29.807,6.86E+08
16346,20.335,-1.8021,32.596,9.72E+08
16347,20.524,1.51E-11,30.543,8.15E+08
16348,18.621,-2.0185,32.005,7.57E+08
16349,39.356,2.91E-11,11.579,1.31E+08
16350,36.955,2.73E-11,11.043,1.08E+08
16351,37.142,2.75E-11,8.7497,6.79E+07
16352,42.362,0.18135,9.8626,1.29E+08
16353,38.683,-0.72366,7.4875,8.21E+07
16354,41.361,-1.7434,8.783,8.75E+07
16355,40.844,-1.6503,11.195,1.01E+08
16356,38.55,-2.1192,10.343,8.91E+07
16357,38.005,-1.8397,8.2742,7.18E+07
16358,39.497,-1.2349,7.9066,8.60E+07
16359,39.356,2.91E-11,16.283,1.90E+08
16360,36.955,2.73E-11,13.591,1.41E+08
16361,37.572,2.78E-11,16.258,1.91E+08
16362,42.362,0.18135,12.41,1.56E+08
16363,41.969,0.13694,15.369,1.77E+08
16364,40.108,-1.3677,16.563,1.60E+08
16365,38.48,-1.6585,15.162,1.52E+08
16366,40.844,-1.6503,13.743,1.32E+08
16367,38.55,-2.1192,12.891,1.21E+08
16368,37.572,2.78E-11,18.415,2.17E+08
16369,41.969,0.13694,17.526,2.04E+08
16370,36.969,-1.811,19.348,2.11E+08
16371,40.108,-1.3677,18.72,1.87E+08
16372,38.48,-1.6585,17.319,1.79E+08
16373,-2.4496,2.73E-11,-31.906,4.24E+07
16374,2.4496,3.09E-11,-31.906,5.59E+07
16375,-3.92E-15,-2.3472,-32,4.91E+07
16376,-1.4717,2.60E-11,-33.402,3.49E+07
16377,0.94963,2.78E-11,-33.496,4.06E+07
16378,-7.2913,2.37E-11,-31.158,6.38E+07
16379,-2.4496,-2.3472,-31.906,4.51E+07
16380,-6.3067,9.88E-12,-32.936,4.46E+07
16381,-3.914,1.17E-11,-33.215,2.64E+07
16382,-5.6966,-2.3921,-31.489,6.56E+07
16383,-4.9654,-2.092,-33.457,3.55E+07
16384,-11.962,2.02E-11,-29.68,8.75E+07
16385,-11.073,6.36E-12,-32.116,1.07E+08
16386,-8.6918,8.12E-12,-32.378,5.05E+07
16387,-8.0903,-2.3921,-30.96,8.66E+07
16388,-10.625,-2.523,-30.184,1.09E+08
16389,-9.8913,-2.0854,-32.121,7.06E+07
16390,-16.353,1.70E-11,-27.506,1.13E+08
16391,-13.345,4.68E-12,-31.201,1.19E+08
16392,-15.778,2.88E-12,-30.81,1.92E+08
16393,-12.905,-2.523,-29.283,1.13E+08
16394,-15.287,-2.1963,-28.112,1.14E+08
16395,-15.744,-1.5021,-29.69,1.49E+08
16396,-20.36,1.40E-11,-24.688,1.54E+08
16397,-20.298,-4.59E-13,-28.906,2.26E+08
16398,-21.709,-1.50E-12,-26.559,1.74E+08
16399,-17.884,1.33E-12,-29.558,2.18E+08
16400,-17.394,-2.1963,-26.86,1.25E+08
16401,-19.399,-2.1963,-25.449,1.40E+08
16402,-20.089,-2.5282,-27.477,1.73E+08
16403,-17.849,-1.5021,-28.438,1.71E+08
16404,-23.89,1.14E-11,-21.29,1.65E+08
16405,-25.825,-4.54E-12,-23.885,1.61E+08
16406,-23.599,-2.90E-12,-25.001,1.89E+08
16407,-21.29,-2.1963,-23.89,1.53E+08
16408,-23.057,-2.1963,-22.19,1.65E+08
16409,-23.902,-2.5572,-24.106,1.64E+08
16410,-25.447,-1.751,-22.636,1.50E+08
16411,-26.86,9.24E-12,-17.394,1.38E+08
16412,-27.454,-5.75E-12,-22.056,1.57E+08
16413,-28.594,-6.59E-12,-19.609,1.33E+08
16414,-24.688,-2.1963,-20.36,1.59E+08
16415,-26.174,-2.1963,-18.41,1.48E+08
16416,-27.077,-1.751,-20.807,1.45E+08
16417,-29.2,7.51E-12,-13.09,8.18E+07
16418,-30.829,-8.24E-12,-14.81,9.53E+07
16419,-29.926,-7.58E-12,-17.553,1.13E+08
16420,-27.506,-2.1963,-16.353,1.27E+08
16421,-28.677,-2.1963,-14.199,1.01E+08
16422,-30.029,-1.6134,-16.076,1.04E+08
16423,-30.856,6.28E-12,-8.4794,3.03E+07
16424,-31.831,-8.98E-12,-12.575,5.61E+07
16425,-32.112,-9.19E-12,-10.119,3.86E+07
16426,-29.68,-2.1963,-11.962,6.77E+07
16427,-30.509,-2.1963,-9.6551,4.05E+07
16428,-31.899,-1.7271,-11.362,4.88E+07
16429,-31.789,5.59E-12,-3.6699,1.02E+08
16430,-32.761,-9.67E-12,-7.7573,2.04E+07
16431,-31.158,-2.1963,-7.2913,4.87E+07
16432,-31.625,-2.1963,-4.8848,8.51E+07
16433,-33.702,-1.3556,-6.3244,2.91E+07
16434,-31.977,5.45E-12,1.2257,1.49E+08
16435,-31.906,-2.1963,-2.4496,1.22E+08
16436,-32,-2.1963,3.74E-14,1.35E+08
16437,-33.574,-1.9092,-1.2566,1.10E+08
16438,-33.691,-1.1435,0.92229,1.49E+08
16439,-31.415,5.87E-12,6.0925,1.43E+08
16440,-31.906,-2.1963,2.4496,1.44E+08
16441,-31.625,-2.1963,4.8848,1.31E+08
16442,-33.597,-1.1435,3.3701,1.58E+08
16443,-33.251,-1.0733,5.6494,1.93E+08
16444,-30.116,6.83E-12,10.817,1.37E+08
16445,-31.705,-8.89E-12,10.324,1.76E+08
16446,-31.158,-2.1963,7.2913,1.15E+08
16447,-30.509,-2.1963,9.6551,1.03E+08
16448,-32.784,-1.0733,8.0542,1.79E+08
16449,-28.112,8.31E-12,15.287,1.71E+08
16450,-30.091,-7.70E-12,15.214,1.86E+08
16451,-30.877,-8.28E-12,12.629,1.88E+08
16452,-29.68,-2.1963,11.962,1.09E+08
16453,-28.677,-2.1963,14.199,1.31E+08
16454,-30.781,-2.6095,13.199,1.54E+08
16455,-25.449,1.03E-11,19.399,2.07E+08
16456,-28.921,-6.83E-12,17.366,2.09E+08
16457,-27.226,-5.58E-12,19.589,2.01E+08
16458,-27.506,-2.1963,16.353,1.53E+08
16459,-26.174,-2.1963,18.41,1.80E+08
16460,-28.408,-2.0815,18.93,1.83E+08
16461,-22.19,1.27E-11,23.057,2.22E+08
16462,-24.64,-3.67E-12,23.488,2.12E+08
16463,-25.741,-4.48E-12,21.537,2.12E+08
16464,-23.057,-2.1963,22.19,2.02E+08
16465,-24.688,-2.1963,20.36,1.92E+08
16466,-25.321,-1.5933,22.579,1.99E+08
16467,-18.41,1.55E-11,26.174,2.14E+08
16468,-22.875,-2.36E-12,25.186,2.09E+08
16469,-19.648,2.13E-14,27.326,2.28E+08
16470,-21.574,-1.40E-12,26.695,2.17E+08
16471,-21.29,-2.1963,23.89,2.03E+08
16472,-19.399,-2.1963,25.449,1.94E+08
16473,-21.669,-1.4342,26.091,2.07E+08
16474,-14.199,1.86E-11,28.677,1.67E+08
16475,-17.645,1.50E-12,28.735,2.13E+08
16476,-15.741,2.91E-12,29.54,2.29E+08
16477,-17.394,-2.1963,26.86,1.82E+08
16478,-15.287,-2.1963,28.112,1.46E+08
16479,-17.576,-1.552,29.264,2.11E+08
16480,-9.6551,2.20E-11,30.509,8.68E+07
16481,-13.545,4.53E-12,30.627,1.95E+08
16482,-13.09,-2.1963,29.2,1.16E+08
16483,-10.817,-2.1963,30.116,9.14E+07
16484,-12.588,-1.4917,31.769,2.08E+08
16485,-4.8848,2.55E-11,31.625,1.16E+08
16486,-8.4794,-2.1963,30.856,1.11E+08
16487,-6.0925,-2.1963,31.415,1.38E+08
16488,-3.17E-14,2.91E-11,32,2.12E+08
16489,-3.6699,-2.1963,31.789,1.82E+08
16490,-1.2257,-2.1963,31.977,1.85E+08
16491,-2.5967,-1.506,33.823,1.35E+08
16492,4.8848,3.27E-11,31.625,3.26E+08
16493,1.2257,-2.1963,31.977,2.39E+08
16494,3.6699,-2.1963,31.789,2.38E+08
16495,2.5965,-1.5059,33.82,2.21E+08
16496,9.6551,3.62E-11,30.509,4.04E+08
16497,6.0925,-2.1963,31.415,2.97E+08
16498,8.4794,-2.1963,30.856,2.93E+08
16499,7.494,-2.0194,33.004,3.08E+08
16500,14.199,3.96E-11,28.677,4.16E+08
16501,10.817,-2.1963,30.116,3.13E+08
16502,13.09,-2.1963,29.2,3.14E+08
16503,14.22,-2.0185,30.791,4.51E+08
16504,18.41,4.27E-11,26.174,4.12E+08
16505,18.318,2.81E-11,28.242,5.21E+08
16506,15.287,-2.1963,28.112,3.11E+08
16507,17.394,-2.1963,26.86,3.47E+08
16508,16.415,-2.0185,29.704,4.53E+08
16509,22.19,4.55E-11,23.057,4.13E+08
16510,22.234,3.10E-11,25.039,4.74E+08
16511,20.322,2.96E-11,26.833,5.37E+08
16512,19.399,-2.1963,25.449,3.67E+08
16513,21.29,-2.1963,23.89,3.91E+08
16514,20.938,-1.7388,26.456,4.99E+08
16515,25.449,4.79E-11,19.399,3.50E+08
16516,26.481,3.41E-11,21.239,3.66E+08
16517,23.999,3.23E-11,23.34,4.54E+08
16518,23.057,-2.1963,22.19,3.80E+08
16519,24.688,-2.1963,20.36,3.54E+08
16520,26.006,-1.4455,22.37,3.84E+08
16521,28.112,4.99E-11,15.287,2.40E+08
16522,29.54,3.64E-11,17.866,2.65E+08
16523,27.966,3.52E-11,19.291,3.08E+08
16524,26.174,-2.1963,18.41,3.07E+08
16525,27.506,-2.1963,16.353,2.50E+08
16526,28.53,-2.3164,18.124,2.53E+08
16527,30.116,5.14E-11,10.817,1.24E+08
16528,30.711,3.72E-11,15.714,1.93E+08
16529,31.877,3.81E-11,13.073,1.47E+08
16530,28.677,-2.1963,14.199,1.91E+08
16531,29.68,-2.1963,11.962,1.37E+08
16532,31.057,-1.5084,13.922,1.52E+08
16533,31.415,5.23E-11,6.0925,9.22E+07
16534,32.705,3.87E-11,10.767,8.31E+07
16535,32.892,3.89E-11,8.4739,5.98E+07
16536,30.509,-2.1963,9.6551,9.07E+07
16537,31.158,-2.1963,7.2913,7.98E+07
16538,32.655,-2.7173,9.137,6.24E+07
16539,31.977,5.27E-11,1.2257,1.08E+08
16540,34.743,2.63E-11,4.2315,1.04E+08
16541,33.358,3.92E-11,6.0691,6.81E+07
16542,33.586,3.94E-11,2.4054,1.08E+08
16543,31.625,-2.1963,4.8848,1.05E+08
16544,31.906,-2.1963,2.4496,1.20E+08
16545,33.674,-0.598,3.8941,1.10E+08
16546,31.789,5.26E-11,-3.6699,8.86E+07
16547,33.518,3.93E-11,-2.1351,7.73E+07
16548,33.68,3.94E-11,-4.24E-02,9.53E+07
16549,32,-2.1963,-2.99E-14,1.09E+08
16550,31.906,-2.1963,-2.4496,1.02E+08
16551,34.799,-0.75966,-1.6792,8.04E+07
16552,30.856,5.19E-11,-8.4794,6.76E+07
16553,32.986,3.89E-11,-8.2373,7.06E+07
16554,33.237,3.91E-11,-4.5685,8.47E+07
16555,33.521,3.93E-11,-6.4735,8.43E+07
16556,31.625,-2.1963,-4.8848,9.32E+07
16557,31.158,-2.1963,-7.2913,9.03E+07
16558,33.875,-1.5712,-6.3026,7.97E+07
16559,29.2,5.07E-11,-13.09,5.98E+07
16560,31.544,3.79E-11,-12.758,7.94E+07
16561,32.337,3.85E-11,-10.599,8.23E+07
16562,30.509,-2.1963,-9.6551,7.79E+07
16563,29.68,-2.1963,-11.962,7.47E+07
16564,31.332,-1.9583,-11.391,6.78E+07
16565,26.86,4.89E-11,-17.394,9.28E+07
16566,30.541,3.71E-11,-14.993,1.02E+08
16567,29.417,3.63E-11,-16.478,1.03E+08
16568,28.677,-2.1963,-14.199,7.83E+07
16569,27.506,-2.1963,-16.353,9.07E+07
16570,29.84,-1.5069,-16.227,9.51E+07
16571,28.688,-1.2116,-17.263,9.43E+07
16572,23.89,4.68E-11,-21.29,1.20E+08
16573,28.18,3.54E-11,-20.668,1.38E+08
16574,26.128,3.39E-11,-22.289,1.38E+08
16575,28.086,3.53E-11,-18.534,1.19E+08
16576,26.174,-2.1963,-18.41,1.05E+08
16577,24.688,-2.1963,-20.36,1.16E+08
16578,26.688,-2.2803,-20.673,1.15E+08
16579,27.356,-1.2116,-19.319,1.13E+08
16580,20.36,4.41E-11,-24.688,1.27E+08
16581,24.498,3.27E-11,-24.117,1.46E+08
16582,22.291,3.10E-11,-24.923,1.47E+08
16583,23.057,-2.1963,-22.19,1.25E+08
16584,21.529,-2.3675,-23.675,1.29E+08
16585,23.428,-1.6154,-24.544,1.34E+08
16586,16.353,4.12E-11,-27.506,1.11E+08
16587,18.195,2.80E-11,-28.014,1.47E+08
16588,20.401,2.96E-11,-26.481,1.41E+08
16589,19.654,-2.3675,-25.253,1.26E+08
16590,17.852,-2.7454,-26.558,1.20E+08
16591,19.659,-1.8187,-27.664,1.36E+08
16592,11.962,3.79E-11,-29.68,8.01E+07
16593,15.199,2.58E-11,-31.004,1.51E+08
16594,12.863,2.41E-11,-31.462,1.23E+08
16595,16.089,2.64E-11,-29.266,1.35E+08
16596,15.767,-2.7454,-27.846,1.08E+08
16597,13.441,-2.5019,-29.04,9.16E+07
16598,13.617,-1.5104,-30.466,1.08E+08
16599,15.494,-1.7477,-30.144,1.23E+08
16600,7.2913,3.45E-11,-31.158,6.38E+07
16601,10.591,2.24E-11,-32.378,1.06E+08
16602,8.1984,2.06E-11,-32.657,7.28E+07
16603,11.179,-2.5019,-29.984,7.67E+07
16604,9.0071,-2.3071,-30.706,6.56E+07
16605,11.345,-1.5104,-31.382,9.15E+07
16606,2.4496,-2.3472,-31.906,5.25E+07
16607,5.8133,1.88E-11,-33.215,7.04E+07
16608,3.392,1.71E-11,-33.309,4.85E+07
16609,4.6228,-3.5208,-31.664,6.00E+07
16610,6.6301,-2.3071,-31.306,6.37E+07
16611,4.5579,-1.8689,-33.003,5.80E+07
16612,-62.3,-11.386,-74.09,4.62E+05
16613,-61.077,-11.5,-72.406,5.94E+05
16614,-64.535,-11.5,-74.843,4.39E+05
16615,-66.075,-11.5,-72.022,5.64E+05
16616,-63.953,-11.5,-70.918,6.81E+05
16617,-63.367,-11.448,-74.622,4.87E+05
16618,-62.156,-11.5,-70.521,6.78E+05
16619,-62.373,-9.7597,-72.175,7.71E+05
16620,-64.243,-10.037,-73.294,6.47E+05
16621,-60.724,-11.386,-72.858,4.92E+05
16622,-63.084,-11.188,-75.064,3.28E+05
16623,-62.046,-9.5401,-72.593,5.72E+05
16624,-63.916,-9.817,-73.712,4.50E+05
16625,-54.773,-11.5,-67.481,1.17E+06
16626,-53.322,-11.381,-67.089,1.35E+06
16627,-55.62,-11.5,-65.008,1.16E+06
16628,-53.591,-11.5,-63.86,1.79E+06
16629,-52.39,-9.9117,-63.839,1.45E+06
16630,-54.065,-10.166,-65.86,1.05E+06
16631,-57.925,-11.5,-69.943,9.70E+05
16632,-54.898,-11.381,-68.321,1.34E+06
16633,-56.614,-11.352,-69.743,1.29E+06
16634,-57.196,-11.5,-66.239,1.08E+06
16635,-59.004,-11.5,-68.059,8.07E+05
16636,-57.157,-10.141,-68.64,8.81E+05
16637,-55.641,-10.166,-67.091,9.68E+05
16638,-58.19,-11.352,-70.974,1.12E+06
16639,-60.58,-11.5,-69.29,7.99E+05
16640,-60.797,-9.7597,-70.944,7.57E+05
16641,-58.733,-10.141,-69.871,7.38E+05
16642,-79.237,-11.386,-55.606,8.35E+05
16643,-80.183,-11.5,-57.767,6.44E+05
16644,-77.454,-11.5,-54.534,1.32E+06
16645,-76.823,-11.5,-58.08,1.76E+06
16646,-79.73,-11.438,-56.398,6.77E+05
16647,-76.857,-11.5,-56.203,1.76E+06
16648,-78.084,-10.08,-55.769,1.29E+06
16649,-78.922,-10.396,-57.011,1.11E+06
16650,-77.873,-11.386,-54.143,1.05E+06
16651,-80.133,-11.165,-56.074,3.59E+05
16652,-77.354,-11.021,-52.816,1.15E+06
16653,-78.472,-9.8601,-55.408,9.64E+05
16654,-79.31,-10.176,-56.65,7.79E+05
16655,-83.111,-10,-60.801,6.87E+05
16656,-82.072,-11.063,-59.103,5.86E+05
16657,-81.667,-10.738,-57.708,4.58E+05
16658,-82.814,-10.545,-60.136,6.70E+05
16659,-82.778,-8.1258,-59.706,7.70E+05
16660,-81.518,-9.6723,-60.303,4.34E+05
16661,-80.7,-9.646,-58.358,5.01E+05
16662,-83.5,-10,-65.24,5.34E+05
16663,-83.079,-11.068,-63.551,4.62E+05
16664,-83.427,-10.562,-64.546,5.30E+05
16665,-83.32,-10.522,-62.335,6.83E+05
16666,-83.342,-8.1258,-61.87,7.76E+05
16667,-83.541,-8.1258,-64.097,6.94E+05
16668,-81.974,-9.2164,-64.34,2.53E+05
16669,-82.076,-9.6723,-62.46,3.68E+05
16670,-82.422,-10,-69.564,67127
16671,-82.491,-11.078,-68.071,1.92E+05
16672,-82.354,-10.634,-69.365,30990
16673,-83.185,-10.537,-66.79,3.65E+05
16674,-83.37,-8.1258,-66.326,5.19E+05
16675,-82.833,-8.1258,-68.496,2.86E+05
16676,-81.799,-9.2164,-66.561,2.34E+05
16677,-79.995,-10,-73.302,5.15E+05
16678,-79.79,-10.75,-72.25,5.75E+05
16679,-81.299,-10.75,-70.02,3.09E+05
16680,-81.328,-10.576,-71.376,3.15E+05
16681,-81.945,-8.1258,-70.548,58655
16682,-80.731,-8.1258,-72.426,3.26E+05
16683,-79.899,-9.2079,-70.564,5.02E+05
16684,-79.042,-9.3876,-72.239,5.31E+05
16685,-76.483,-10,-76.045,9.68E+05
16686,-78.284,-10.75,-73.893,8.06E+05
16687,-78.012,-10.539,-74.953,8.97E+05
16688,-79.931,-10.647,-73.154,5.30E+05
16689,-79.224,-8.1258,-74.077,6.06E+05
16690,-77.465,-8.1258,-75.457,8.57E+05
16691,-77.537,-9.3876,-73.882,7.76E+05
16692,-72.269,-10,-77.496,1.15E+06
16693,-73.808,-10.604,-77.013,1.21E+06
16694,-76.087,-10.587,-76.118,1.03E+06
16695,-75.502,-8.1258,-76.528,1.04E+06
16696,-73.389,-8.1258,-77.259,1.14E+06
16697,-73.554,-9.1352,-75.249,8.83E+05
16698,-75.578,-9.3876,-74.945,8.23E+05
16699,-67.813,-10,-77.496,9.95E+05
16700,-69.49,-10.448,-77.601,1.19E+06
16701,-71.589,-10.632,-77.451,1.19E+06
16702,-71.185,-8.1258,-77.633,1.16E+06
16703,-68.949,-8.1258,-77.637,1.12E+06
16704,-69.556,-9.076,-76.075,8.49E+05
16705,-71.357,-9.1352,-75.617,8.23E+05
16706,-64.858,-10.761,-76.421,7.11E+05
16707,-67.263,-10.478,-77.312,9.85E+05
16708,-66.743,-8.1258,-77.272,9.40E+05
16709,-65.739,-9.2867,-74.948,6.43E+05
16710,-67.359,-9.076,-75.708,6.93E+05
16711,-68.8,-11.5,-76.117,7.99E+05
16712,-68.052,-11.5,-73.043,4.07E+05
16713,-65.419,-11.448,-75.679,6.54E+05
16714,-67.761,-11.358,-76.61,9.13E+05
16715,-66.22,-10.037,-74.315,6.07E+05
16716,-67.84,-9.826,-75.074,6.33E+05
16717,-73.236,-11.5,-75.748,1.01E+06
16718,-70.266,-11.5,-73.274,4.51E+05
16719,-69.99,-11.347,-76.84,1.09E+06
16720,-72.08,-11.408,-76.531,1.14E+06
16721,-70.053,-9.826,-75.305,7.39E+05
16722,-71.854,-9.8852,-74.847,7.91E+05
16723,-76.844,-11.5,-74.067,9.72E+05
16724,-72.411,-11.5,-72.681,5.46E+05
16725,-74.692,-11.5,-71.962,8.51E+05
16726,-74.226,-11.42,-75.943,1.17E+06
16727,-76.469,-11.385,-74.991,1.09E+06
16728,-73.999,-9.8852,-74.254,8.98E+05
16729,-76.023,-10.138,-73.95,9.49E+05
16730,-79.979,-11.5,-70.908,5.21E+05
16731,-76.137,-11.5,-70.968,7.75E+05
16732,-77.92,-11.382,-73.992,8.72E+05
16733,-79.7,-11.425,-72.066,6.04E+05
16734,-78.326,-9.9579,-71.28,7.54E+05
16735,-77.468,-10.138,-72.956,8.44E+05
16736,-81.843,-11.5,-66.355,1.84E+05
16737,-78.751,-11.5,-66.616,1.40E+06
16738,-77.647,-11.5,-68.737,4.39E+05
16739,-81.217,-11.406,-69.833,3.53E+05
16740,-82.196,-11.396,-67.308,1.68E+05
16741,-81.838,-8.8758,-69.012,2.39E+05
16742,-80.846,-9.9664,-67.091,4.29E+05
16743,-79.835,-9.9579,-69.05,5.77E+05
16744,-81.823,-11.5,-61.904,2.46E+05
16745,-79.154,-11.5,-64.427,1.13E+06
16746,-82.592,-11.381,-65.117,2.87E+05
16747,-82.561,-11.381,-62.897,4.01E+05
16748,-81.249,-9.9664,-64.902,2.28E+05
16749,-81.352,-10.422,-63.022,1.56E+05
16750,-78.013,-11.5,-59.961,1.17E+06
16751,-78.732,-11.5,-62.242,1.33E+06
16752,-81.005,-11.438,-58.33,4.35E+05
16753,-82.138,-11.381,-60.71,5.13E+05
16754,-80.929,-10.422,-60.837,4.14E+05
16755,-80.112,-10.396,-58.892,6.61E+05
16756,-74.726,-11.5,-51.609,1.73E+06
16757,-75.643,-11.364,-51.677,1.74E+06
16758,-74.032,-11.5,-53.561,1.60E+06
16759,-75.493,-11.5,-54.741,1.93E+06
16760,-75.063,-9.4687,-53.22,1.68E+06
16761,-76.72,-10.08,-54.307,1.48E+06
16762,-71.998,-11.5,-48.684,2.32E+06
16763,-74.279,-11.364,-50.214,1.90E+06
16764,-71.178,-11.5,-50.706,1.74E+06
16765,-72.668,-11.5,-52.098,1.65E+06
16766,-72.179,-9.8209,-49.845,1.90E+06
16767,-73.699,-9.4687,-51.757,1.76E+06
16768,-72.915,-11.364,-48.751,2.34E+06
16769,-69.814,-11.5,-49.243,2.21E+06
16770,-68.262,-11.5,-47.95,3.01E+06
16771,-68.414,-9.9367,-46.664,2.92E+06
16772,-70.815,-9.8209,-48.383,2.37E+06
16773,-67.155,-11.5,-69.725,5.92E+05
16774,-71.921,-11.5,-70.142,5.99E+05
16775,-69.497,-9.75,-70.407,1.03E+06
16776,-67.665,-10.037,-71.679,6.02E+05
16777,-69.284,-9.826,-72.438,4.99E+05
16778,-71.084,-9.8852,-71.98,5.51E+05
16779,-64.081,-11.5,-66.06,1.45E+06
16780,-67.155,-9.75,-69.725,8.06E+05
16781,-64.782,-8.876,-67.557,1.41E+06
16782,-65.828,-8.8876,-68.797,6.07E+05
16783,-63.456,-11.5,-67.802,5.65E+05
16784,-63.673,-9.7597,-69.456,7.51E+05
16785,-65.543,-10.037,-70.574,7.70E+05
16786,-64.498,-11.5,-61.295,2.64E+06
16787,-63.89,-8.876,-65.287,2.06E+06
16788,-63.95,-9.328,-62.783,2.69E+06
16789,-60.959,-11.5,-61.583,1.74E+06
16790,-60.929,-11.5,-63.701,1.31E+06
16791,-62.737,-11.5,-65.521,1.70E+06
16792,-62.494,-9.4143,-64.286,1.73E+06
16793,-62.346,-10.239,-62.374,1.88E+06
16794,-68.162,-11.5,-58.22,2.35E+06
16795,-64.948,-9.328,-60.558,2.84E+06
16796,-66.698,-9.3705,-58.901,2.25E+06
16797,-62.063,-11.5,-59.462,2.09E+06
16798,-63.708,-11.5,-57.569,3.32E+06
16799,-66.815,-11.5,-57.282,2.75E+06
16800,-64.54,-9.8766,-58.344,2.73E+06
16801,-63.451,-10.239,-60.252,2.04E+06
16802,-72.927,-11.5,-58.637,2.19E+06
16803,-68.973,-9.3705,-58.023,2.22E+06
16804,-70.973,-9.5843,-58.001,2.33E+06
16805,-71.28,-11.5,-56.003,1.89E+06
16806,-69.096,-11.5,-56.563,2.41E+06
16807,-72.741,-11.5,-57.182,2.30E+06
16808,-69.911,-9.7742,-56.245,1.80E+06
16809,-76.002,-11.5,-62.302,2.34E+06
16810,-73.267,-9.5843,-58.828,2.08E+06
16811,-74.052,-8.2326,-59.388,1.91E+06
16812,-75.247,-8.1683,-60.722,2.56E+06
16813,-74.863,-11.5,-58.287,2.34E+06
16814,-76.543,-9.5812,-60.858,1.75E+06
16815,-77.745,-10.422,-61.04,1.24E+06
16816,-76.928,-10.396,-59.095,1.67E+06
16817,-75.438,-9.421,-58.948,2.12E+06
16818,-75.585,-11.5,-67.067,1.45E+06
16819,-76.129,-9.3541,-65.597,2.12E+06
16820,-76.174,-8.1683,-62.978,2.47E+06
16821,-77.263,-9.5812,-63.139,1.82E+06
16822,-78.362,-9.9664,-65.201,1.37E+06
16823,-77.351,-9.9579,-67.16,1.59E+06
16824,-78.465,-10.422,-63.321,1.35E+06
16825,-71.921,-9.75,-70.142,9.02E+05
16826,-73.839,-8.589,-69.145,4.94E+05
16827,-75.124,-9.3541,-67.819,1.26E+06
16828,-76.247,-9.9579,-69.281,6.79E+05
16829,-73.365,-9.8852,-71.261,5.78E+05
16830,-75.39,-10.138,-70.957,7.47E+05
16831,-68.378,-11.386,68.52,2.16E+07
16832,-66.807,-11.5,67.156,4.22E+07
16833,-68.934,-11.5,70.813,1.53E+07
16834,-65.989,-11.5,72.101,2.13E+07
16835,-65.074,-11.5,69.891,3.94E+07
16836,-68.815,-11.448,69.629,1.55E+07
16837,-65.121,-11.5,67.533,5.12E+07
16838,-66.626,-9.8488,68.427,2.58E+07
16839,-67.416,-9.8889,70.266,2.20E+07
16840,-67.279,-11.359,66.849,4.12E+07
16841,-69.28,-11.188,69.386,1.51E+07
16842,-67.022,-11.021,65.469,4.99E+07
16843,-67.071,-9.6291,68.138,2.62E+07
16844,-67.861,-9.6692,69.977,2.29E+07
16845,-59.849,-11.404,55.47,1.47E+08
16846,-60.271,-11.5,57.092,1.33E+08
16847,-56.777,-11.5,55.396,1.37E+08
16848,-56.981,-12,55.387,9.99E+07
16849,-57.613,-11.5,57.432,1.31E+08
16850,-58.474,-9.934,55.965,1.01E+08
16851,-60.931,-11.378,57.141,1.34E+08
16852,-62.859,-11.051,59.112,1.09E+08
16853,-59.111,-9.7432,56.028,1.02E+08
16854,-62.343,-11.5,60.281,1.15E+08
16855,-63.357,-11.364,60.696,1.06E+08
16856,-61.909,-8.875,58.236,7.30E+07
16857,-59.913,-11.5,61.074,1.20E+08
16858,-58.703,-11.5,59.11,1.32E+08
16859,-59.563,-9.934,57.642,9.32E+07
16860,-61.045,-9.6553,60.166,8.68E+07
16861,-64.339,-11.364,62.208,8.79E+07
16862,-60.894,-11.5,62.586,1.02E+08
16863,-62.835,-11.5,64.014,8.84E+07
16864,-62.027,-9.6553,61.678,6.88E+07
16865,-63.977,-11.5,62.797,9.02E+07
16866,-65.524,-11.333,64.058,7.02E+07
16867,-64.032,-11.5,65.856,7.09E+07
16868,-65.537,-9.8488,66.75,4.27E+07
16869,-65.173,-11.5,64.64,7.26E+07
16870,-48.488,-11.386,83.782,2.36E+07
16871,-50.558,-11.5,84.913,1.64E+07
16872,-47.576,-11.5,81.912,4.36E+07
16873,-51.164,-11.5,81.593,3.19E+07
16874,-49.235,-11.438,84.342,1.82E+07
16875,-49.291,-11.5,81.463,3.60E+07
16876,-48.717,-10.193,82.679,2.60E+07
16877,-49.955,-10.347,83.426,2.21E+07
16878,-47.885,-10.574,84.325,2.15E+07
16879,-49.428,-10,85.934,1.90E+07
16880,-46.154,-10,82.574,3.75E+07
16881,-47.8,-8.125,84.402,2.91E+07
16882,-48.601,-10.729,84.958,1.65E+07
16883,-46.566,-8.125,83.031,2.80E+07
16884,-48.16,-9.4432,83.181,2.81E+07
16885,-49.397,-9.5968,83.928,2.46E+07
16886,-46.239,-10.574,82.498,3.86E+07
16887,-47.15,-11.386,82.296,4.22E+07
16888,-48.876,-11.165,84.716,1.72E+07
16889,-48.323,-9.9735,83.034,2.61E+07
16890,-49.561,-10.127,83.781,2.24E+07
16891,-53.326,-10,88.094,1.98E+07
16892,-51.725,-11.063,86.911,1.31E+07
16893,-49.428,-8.125,85.934,2.89E+07
16894,-50.37,-10.738,86.386,1.26E+07
16895,-52.69,-10.545,87.74,1.54E+07
16896,-52.264,-8.1258,87.667,2.79E+07
16897,-52.999,-9.6382,86.463,2.05E+07
16898,-51.141,-9.5968,85.315,2.27E+07
16899,-57.715,-10,88.868,2.04E+07
16900,-56.069,-11.068,88.302,2.15E+07
16901,-57.029,-10.562,88.735,2.04E+07
16902,-54.836,-10.522,88.436,1.78E+07
16903,-54.371,-8.1258,88.417,2.86E+07
16904,-56.572,-8.1258,88.81,2.62E+07
16905,-56.999,-9.0749,87.285,2.07E+07
16906,-55.1,-9.6382,87.207,2.25E+07
16907,-62.116,-10,88.171,1.81E+07
16908,-60.623,-11.078,88.109,2.52E+07
16909,-61.923,-10.634,88.086,2.21E+07
16910,-59.286,-10.537,88.69,2.05E+07
16911,-58.807,-8.1258,88.833,2.44E+07
16912,-61.016,-8.1258,88.488,1.77E+07
16913,-59.227,-9.0749,87.304,2.07E+07
16914,-66.051,-10,86.079,1.75E+07
16915,-62.668,-10.75,87.092,2.63E+07
16916,-64.016,-10.576,87.24,2.36E+07
16917,-63.138,-8.1258,87.782,1.50E+07
16918,-65.114,-8.1258,86.736,9.78E+06
16919,-64.417,-9.3273,85.487,1.77E+07
16920,-69.09,-10,82.82,1.78E+07
16921,-68.075,-10.75,82.773,2.61E+07
16922,-67.869,-10.539,84.247,2.29E+07
16923,-65.909,-10.647,86.002,2.26E+07
16924,-66.89,-8.1258,85.379,9.40E+06
16925,-68.418,-8.1258,83.746,1.45E+07
16926,-67.387,-9.1626,81.901,1.94E+07
16927,-66.185,-9.3273,84.13,1.78E+07
16928,-70.902,-10,78.749,2.05E+07
16929,-69.305,-10.75,80.915,2.55E+07
16930,-70.287,-10.604,80.24,2.02E+07
16931,-69.197,-10.587,82.431,2.21E+07
16932,-69.656,-8.1258,81.884,1.72E+07
16933,-70.569,-8.1258,79.843,2.37E+07
16934,-68.617,-9.1626,80.043,2.03E+07
16935,-71.291,-10,74.309,2.02E+07
16936,-71.249,-10.448,75.989,1.92E+07
16937,-70.917,-10.632,78.066,2.04E+07
16938,-71.133,-8.1258,77.68,2.61E+07
16939,-71.332,-8.1258,75.453,2.97E+07
16940,-69.735,-9.0599,75.938,2.46E+07
16941,-69.175,-9.1626,77.886,2.02E+07
16942,-70.478,-10.761,71.272,1.29E+07
16943,-71.156,-10.478,73.746,1.67E+07
16944,-71.161,-8.1258,73.224,2.86E+07
16945,-68.933,-9.1389,71.901,2.55E+07
16946,-69.56,-9.0599,73.717,2.26E+07
16947,-69.831,-11.5,75.172,2.15E+07
16948,-66.834,-11.5,74.16,2.47E+07
16949,-69.689,-11.448,71.765,1.20E+07
16950,-70.413,-11.358,74.181,1.53E+07
16951,-68.261,-9.8889,72.324,2.03E+07
16952,-68.888,-9.8099,74.141,1.83E+07
16953,-69.193,-11.5,79.234,3.11E+07
16954,-66.871,-11.5,76.385,3.12E+07
16955,-70.448,-11.347,76.421,2.17E+07
16956,-69.958,-11.408,78.476,2.52E+07
16957,-68.924,-9.8099,76.366,2.39E+07
16958,-68.364,-9.9126,78.314,2.26E+07
16959,-67.003,-11.5,83.108,3.52E+07
16960,-66.263,-11.5,78.169,3.34E+07
16961,-65.348,-11.5,80.379,5.49E+07
16962,-69.347,-11.41,80.262,2.80E+07
16963,-68.213,-11.398,82.412,3.12E+07
16964,-67.757,-9.9126,80.098,2.62E+07
16965,-66.554,-10.077,82.328,2.52E+07
16966,-63.245,-11.5,86.078,3.53E+07
16967,-63.695,-11.5,82.338,5.65E+07
16968,-66.552,-11.4,84.381,3.23E+07
16969,-64.475,-11.404,85.989,3.29E+07
16970,-64.901,-10.077,84.287,2.70E+07
16971,-58.969,-11.5,87.315,3.03E+07
16972,-59.499,-11.5,84.258,4.16E+07
16973,-61.708,-11.5,83.342,5.33E+07
16974,-62.489,-11.406,86.994,3.14E+07
16975,-59.888,-11.396,87.749,2.76E+07
16976,-61.616,-8.8758,87.542,2.02E+07
16977,-59.837,-9.8249,86.401,2.58E+07
16978,-62.915,-10.077,85.291,2.48E+07
16979,-54.537,-11.5,86.907,2.08E+07
16980,-57.283,-11.5,84.468,3.86E+07
16981,-57.671,-11.381,87.953,2.46E+07
16982,-55.462,-11.381,87.729,2.03E+07
16983,-57.622,-9.8249,86.612,2.19E+07
16984,-55.723,-10.388,86.535,2.34E+07
16985,-52.934,-11.5,82.942,2.45E+07
16986,-55.143,-11.5,83.857,3.21E+07
16987,-51.048,-11.438,85.781,1.18E+07
16988,-53.321,-11.381,87.117,1.40E+07
16989,-53.583,-10.388,85.924,1.72E+07
16990,-51.725,-10.347,84.775,1.79E+07
16991,-38.008,-11.152,72.721,1.29E+08
16992,-39.547,-11.5,72.994,1.38E+08
16993,-38.814,-11.5,69.18,1.44E+08
16994,-38.044,-12,72.468,7.69E+07
16995,-36.527,-12,70.762,1.45E+08
16996,-38.482,-12,70.311,1.13E+08
16997,-40.48,-11.5,70.695,1.36E+08
16998,-37.485,-10.211,69.943,1.13E+08
16999,-39.457,-10.097,71.611,1.09E+08
17000,-39.572,-10,75.263,9.76E+07
17001,-39.175,-11.061,74.166,1.18E+08
17002,-37.926,-11.25,73.436,5.51E+07
17003,-36.386,-11.25,71.726,1.24E+08
17004,-38.497,-8.1654,74.07,7.01E+07
17005,-37.056,-7.5624,72.47,5.27E+07
17006,-37.343,-9.4612,70.907,9.13E+07
17007,-39.315,-9.3467,72.575,8.74E+07
17008,-42.863,-10,78.919,7.16E+07
17009,-42.159,-11.061,77.48,9.36E+07
17010,-40.82,-11.061,75.994,1.11E+08
17011,-42.04,-8.125,78.005,5.46E+07
17012,-40.142,-8.1654,75.897,5.78E+07
17013,-43.137,-10.75,75.145,9.88E+07
17014,-40.961,-9.3467,74.403,7.73E+07
17015,-42.525,-7.6794,75.817,4.66E+07
17016,-43.396,-9.313,77.568,6.72E+07
17017,-45.142,-11.061,80.794,5.80E+07
17018,-43.804,-11.061,79.308,7.70E+07
17019,-43.686,-8.125,79.833,3.92E+07
17020,-44.92,-8.125,81.203,3.71E+07
17021,-45.041,-9.313,79.396,5.05E+07
17022,-46.514,-9.4432,81.353,4.16E+07
17023,-44.9,-11.5,78.939,8.14E+07
17024,-46.905,-11.5,78.418,7.72E+07
17025,-47.953,-11.5,79.977,5.49E+07
17026,-47.961,-9.9832,79.674,4.72E+07
17027,-45.906,-10.063,79.236,5.22E+07
17028,-47.379,-10.193,81.193,4.28E+07
17029,-42.223,-11.5,75.967,1.18E+08
17030,-44.31,-11.5,75.326,1.06E+08
17031,-45.567,-11.5,76.932,9.61E+07
17032,-44.568,-10.063,77.749,7.08E+07
17033,-42.971,-11.5,73.84,1.23E+08
17034,-41.818,-11.5,72.182,1.33E+08
17035,-40.795,-10.097,73.098,9.83E+07
17036,-40.837,-11.5,64.825,1.32E+08
17037,-39.229,-12,68.025,1.07E+08
17038,-40.149,-12,66.025,8.62E+07
17039,-38.15,-12,66.462,1.36E+08
17040,-39.26,-12,64.521,1.32E+08
17041,-42.599,-11.5,65.815,1.31E+08
17042,-41.223,-11.5,68.412,1.31E+08
17043,-38.227,-10.211,67.659,1.06E+08
17044,-40.2,-10.097,69.328,1.02E+08
17045,-41.496,-9.873,66.844,9.54E+07
17046,-39.368,-9.1121,65.481,7.84E+07
17047,-43.84,-11.5,61.078,1.31E+08
17048,-41.399,-12,63.97,8.09E+07
17049,-42.751,-12,62.233,8.13E+07
17050,-41.952,-12,60.522,1.26E+08
17051,-40.526,-12,62.481,1.26E+08
17052,-43.865,-11.5,63.775,1.24E+08
17053,-43.266,-9.846,62.501,8.61E+07
17054,-42.761,-9.873,64.804,9.01E+07
17055,-40.723,-10.066,61.237,9.44E+07
17056,-40.634,-9.1121,63.44,7.30E+07
17057,-47.65,-11.5,58.155,1.35E+08
17058,-44.437,-12,60.517,8.54E+07
17059,-46.15,-12,59.135,1.06E+08
17060,-43.668,-12,58.842,1.32E+08
17061,-45.581,-11.5,62.095,1.30E+08
17062,-47.022,-11.5,60.283,1.34E+08
17063,-44.981,-9.846,60.821,9.03E+07
17064,-47.08,-9.8239,59.548,8.86E+07
17065,-45.931,-10.219,57.105,1.03E+08
17066,-45.191,-9.1299,58.907,7.47E+07
17067,-52.047,-11.5,56.224,1.31E+08
17068,-48.183,-12,57.85,1.05E+08
17069,-50.166,-12,56.896,9.49E+07
17070,-47.691,-12,55.428,1.33E+08
17071,-50.72,-12,54.588,1.34E+08
17072,-49.088,-11.5,59.06,1.33E+08
17073,-50.795,-11.5,58.564,1.31E+08
17074,-50.917,-9.8127,56.988,9.05E+07
17075,-49.146,-9.8239,58.325,8.80E+07
17076,-47.998,-10.219,55.882,1.02E+08
17077,-52.44,-12,56.109,9.20E+07
17078,-54.589,-12,55.633,9.31E+07
17079,-53.019,-12,53.893,1.30E+08
17080,-55.216,-11.5,57.559,1.26E+08
17081,-53.094,-11.5,57.87,1.28E+08
17082,-54.318,-10.342,53.621,1.03E+08
17083,-53.215,-9.8127,56.293,8.80E+07
17084,-56.077,-9.934,56.092,9.30E+07
17085,-63.607,-11.5,72.977,3.54E+07
17086,-63.607,-11.5,77.76,5.18E+07
17087,-64.082,-9.75,75.369,2.65E+07
17088,-65.509,-9.8889,73.534,2.51E+07
17089,-66.136,-9.8099,75.35,2.65E+07
17090,-65.575,-9.9126,77.298,2.68E+07
17091,-60.224,-11.5,69.594,5.65E+07
17092,-63.607,-9.75,72.977,3.43E+07
17093,-61.653,-8.8759,70.423,5.89E+07
17094,-62.798,-8.8876,71.573,4.81E+07
17095,-62.299,-11.5,68.592,6.71E+07
17096,-63.804,-9.8488,69.485,4.49E+07
17097,-64.594,-9.8889,71.324,4.16E+07
17098,-55.441,-11.5,69.594,4.61E+07
17099,-59.47,-8.8759,69.337,6.12E+07
17100,-56.971,-9.347,69.178,5.79E+07
17101,-56.036,-11.5,66.094,8.11E+07
17102,-58.148,-11.5,66.249,8.18E+07
17103,-60.089,-11.5,67.676,6.63E+07
17104,-57.55,-9.2279,67.401,4.91E+07
17105,-55.184,-9.2539,67.893,5.05E+07
17106,-52.058,-11.5,72.977,4.93E+07
17107,-52.865,-9.354,71.575,3.90E+07
17108,-54.667,-9.347,69.979,4.09E+07
17109,-53.826,-11.5,67.01,6.84E+07
17110,-51.798,-11.5,68.483,6.05E+07
17111,-51.24,-11.5,71.553,6.19E+07
17112,-51.017,-9.6511,70.121,3.85E+07
17113,-52.974,-9.2539,68.809,3.65E+07
17114,-52.058,-11.5,77.76,5.25E+07
17115,-51.792,-9.354,73.765,5.73E+07
17116,-51.594,-9.5822,75.757,7.44E+07
17117,-49.577,-11.5,75.89,7.57E+07
17118,-50.325,-11.5,73.763,7.61E+07
17119,-50.625,-11.5,77.448,5.32E+07
17120,-50.03,-9.8119,74.836,5.71E+07
17121,-50.633,-9.9832,77.145,5.43E+07
17122,-55.441,-11.5,81.143,3.60E+07
17123,-52.218,-9.5822,78.115,5.72E+07
17124,-52.707,-8.2322,78.946,4.61E+07
17125,-53.93,-8.1686,80.25,3.21E+07
17126,-51.54,-11.5,79.658,4.20E+07
17127,-51.548,-9.9832,79.355,3.99E+07
17128,-54.021,-9.7681,81.666,3.08E+07
17129,-54.062,-10.388,82.769,2.93E+07
17130,-52.204,-10.347,81.621,3.14E+07
17131,-60.224,-11.5,81.143,5.77E+07
17132,-58.705,-9.4086,81.557,3.64E+07
17133,-56.095,-8.1686,81.372,3.03E+07
17134,-56.23,-9.7681,82.582,3.12E+07
17135,-58.171,-9.8249,83.762,3.32E+07
17136,-61.248,-10.077,82.652,3.29E+07
17137,-56.272,-10.388,83.685,3.29E+07
17138,-63.607,-9.75,77.76,4.12E+07
17139,-62.446,-8.589,79.584,3.84E+07
17140,-61.007,-9.4086,80.752,4.59E+07
17141,-64.66,-9.9126,79.507,4.62E+07
17142,-63.458,-10.077,81.737,4.70E+07
17143,-79.237,-1.1142,-55.606,5.96E+05
17144,-77.454,-1,-54.534,1.18E+06
17145,-80.183,-1,-57.767,2.11E+05
17146,-76.823,-1,-58.08,1.48E+06
17147,-79.861,-1.0521,-56.622,3.44E+05
17148,-76.857,-1,-56.203,1.46E+06
17149,-77.168,-2.375,-55.573,1.30E+06
17150,-78.775,-2.3012,-56.913,8.61E+05
17151,-77.873,-1.1142,-54.143,1.03E+06
17152,-80.276,-1.3124,-56.302,1.28E+05
17153,-77.373,-1.4792,-52.836,1.32E+06
17154,-77.556,-2.5947,-55.212,1.09E+06
17155,-79.163,-2.5209,-56.552,6.32E+05
17156,-71.998,-1,-48.684,2.76E+06
17157,-72.934,-1.1363,-48.772,2.78E+06
17158,-69.814,-1,-49.243,2.40E+06
17159,-68.262,-1,-47.95,2.62E+06
17160,-70.904,-2.3767,-48.537,2.64E+06
17161,-68.756,-2.5468,-46.77,2.95E+06
17162,-74.726,-1,-51.609,1.99E+06
17163,-74.298,-1.1363,-50.234,2.33E+06
17164,-71.178,-1,-50.706,1.95E+06
17165,-72.668,-1,-52.098,2.03E+06
17166,-72.268,-2.3767,-49.999,2.19E+06
17167,-74.44,-2.375,-52.648,1.88E+06
17168,-75.662,-1.1363,-51.697,2.01E+06
17169,-74.032,-1,-53.561,1.79E+06
17170,-75.493,-1,-54.741,1.83E+06
17171,-75.804,-2.375,-54.111,1.70E+06
17172,-62.3,-1.1142,-74.09,6.98E+05
17173,-64.535,-1,-74.843,7.76E+05
17174,-61.077,-1,-72.406,7.26E+05
17175,-66.075,-1,-72.022,9.58E+05
17176,-63.953,-1,-70.918,1.21E+06
17177,-63.132,-1.0622,-74.511,7.03E+05
17178,-62.156,-1,-70.521,9.59E+05
17179,-64.393,-2.3945,-73.619,8.70E+05
17180,-62.365,-2.429,-72.924,8.86E+05
17181,-60.724,-1.1142,-72.858,4.52E+05
17182,-62.845,-1.3352,-74.941,4.97E+05
17183,-62.038,-2.6486,-73.341,6.18E+05
17184,-67.813,-2.5,-77.496,9.57E+05
17185,-66.031,-1.4374,-76.609,8.48E+05
17186,-64.606,-1.7624,-76.326,6.99E+05
17187,-67.125,-1.9554,-77.258,9.14E+05
17188,-66.743,-4.3758,-77.272,9.54E+05
17189,-65.889,-3.1445,-75.274,7.54E+05
17190,-72.269,-2.5,-77.496,1.01E+06
17191,-70.55,-1.4316,-77.224,9.71E+05
17192,-71.571,-1.9382,-77.484,1.00E+06
17193,-69.36,-1.9776,-77.57,1.04E+06
17194,-71.185,-4.3758,-77.633,1.10E+06
17195,-68.949,-4.3758,-77.637,1.07E+06
17196,-68.087,-3.1445,-75.641,6.71E+05
17197,-70.744,-2.7101,-75.726,7.41E+05
17198,-76.483,-2.5,-76.045,7.56E+05
17199,-75.002,-1.4218,-76.244,8.60E+05
17200,-76.278,-1.8663,-75.995,7.11E+05
17201,-73.786,-1.9626,-77.048,9.67E+05
17202,-75.502,-4.3758,-76.528,9.43E+05
17203,-73.389,-4.3758,-77.259,1.05E+06
17204,-72.942,-2.7101,-75.359,6.67E+05
17205,-75.518,-3.3219,-74.252,5.01E+05
17206,-79.995,-2.5,-73.302,2.82E+05
17207,-78.192,-1.9239,-74.798,5.49E+05
17208,-79.224,-4.3758,-74.077,4.84E+05
17209,-77.465,-4.3758,-75.457,7.29E+05
17210,-77.476,-3.3219,-73.189,4.99E+05
17211,-82.422,-2.5,-69.564,3.16E+05
17212,-81.467,-1.9613,-71.182,2.00E+05
17213,-79.842,-1.8534,-73.251,2.62E+05
17214,-81.945,-4.3758,-70.548,1.48E+05
17215,-80.731,-4.3758,-72.426,2.08E+05
17216,-80.317,-3.2071,-69.855,4.06E+05
17217,-78.981,-3.3219,-71.546,3.62E+05
17218,-83.5,-2.5,-65.24,7.37E+05
17219,-83.152,-1.8963,-66.815,6.79E+05
17220,-82.46,-1.913,-69.163,3.76E+05
17221,-83.37,-4.3758,-66.326,6.50E+05
17222,-82.833,-4.3758,-68.496,4.27E+05
17223,-81.205,-3.2071,-67.811,3.48E+05
17224,-82.299,-2.54,-66.315,5.44E+05
17225,-83.111,-2.5,-60.801,8.08E+05
17226,-83.362,-2.0515,-62.463,9.27E+05
17227,-83.396,-1.8677,-64.566,7.77E+05
17228,-83.342,-4.3758,-61.87,8.62E+05
17229,-83.541,-4.3758,-64.097,7.86E+05
17230,-81.767,-3.3187,-62.845,4.39E+05
17231,-82.474,-2.54,-64.094,5.97E+05
17232,-81.783,-1.739,-57.951,5.49E+05
17233,-82.881,-2.0222,-60.269,8.38E+05
17234,-82.778,-4.3758,-59.706,8.02E+05
17235,-80.553,-3.0512,-58.26,3.83E+05
17236,-81.209,-3.3187,-60.687,3.53E+05
17237,-81.823,-1,-61.904,5.26E+05
17238,-78.732,-1,-62.242,5.97E+05
17239,-78.013,-1,-59.961,8.47E+05
17240,-81.092,-1.0521,-58.574,4.35E+05
17241,-82.224,-1.1416,-60.827,7.26E+05
17242,-79.965,-2.3012,-58.794,3.53E+05
17243,-80.62,-2.5687,-61.222,2.77E+05
17244,-81.843,-1,-66.355,6.27E+05
17245,-79.154,-1,-64.427,4.47E+05
17246,-82.648,-1.1526,-63.027,7.92E+05
17247,-82.522,-1.0919,-65.135,7.52E+05
17248,-81.042,-2.5687,-63.407,4.21E+05
17249,-81.75,-1.79,-64.656,6.15E+05
17250,-80.239,-1,-70.507,4.51E+05
17251,-77.647,-1,-68.737,6.58E+05
17252,-78.751,-1,-66.616,7.86E+05
17253,-82.123,-1.0803,-67.325,5.95E+05
17254,-81.37,-1.115,-69.642,4.86E+05
17255,-80.253,-2.4571,-68.341,6.21E+05
17256,-81.346,-1.79,-66.845,5.56E+05
17257,-77.232,-1,-73.788,4.00E+05
17258,-76.474,-1,-70.629,5.82E+05
17259,-80.193,-1.1005,-71.542,3.28E+05
17260,-78.427,-1.0956,-73.487,3.64E+05
17261,-79.08,-2.4571,-70.232,5.62E+05
17262,-77.744,-2.5719,-71.923,5.44E+05
17263,-73.236,-1,-75.748,6.45E+05
17264,-72.411,-1,-72.681,4.12E+05
17265,-74.692,-1,-71.962,3.27E+05
17266,-76.646,-1.0942,-74.821,6.37E+05
17267,-74.216,-1.1045,-76.017,7.89E+05
17268,-74.191,-2.1302,-72.305,3.66E+05
17269,-73.386,-1.9601,-74.363,5.07E+05
17270,-75.962,-2.5719,-73.257,5.53E+05
17271,-68.8,-1,-76.117,7.42E+05
17272,-70.266,-1,-73.274,4.77E+05
17273,-72.068,-1.1192,-76.603,8.57E+05
17274,-69.853,-1.1189,-76.765,9.00E+05
17275,-71.241,-1.9601,-74.956,6.19E+05
17276,-68.052,-1,-73.043,7.69E+05
17277,-65.168,-1.0622,-75.613,7.30E+05
17278,-67.638,-1.1188,-76.535,8.50E+05
17279,-66.37,-2.3945,-74.64,8.37E+05
17280,-69.028,-1.9601,-74.726,5.27E+05
17281,-57.925,-1,-69.943,3.31E+05
17282,-58.149,-1.1544,-70.959,4.84E+05
17283,-60.58,-1,-69.29,7.14E+05
17284,-59.585,-3,-69.988,5.10E+05
17285,-60.789,-2.429,-71.692,6.82E+05
17286,-54.773,-1,-67.481,3.14E+05
17287,-56.573,-1.1544,-69.728,3.05E+05
17288,-57.196,-1,-66.239,4.46E+05
17289,-59.004,-1,-68.059,5.33E+05
17290,-55.945,-2.76,-66.827,3.46E+05
17291,-58.009,-3,-68.757,3.05E+05
17292,-54.997,-1.1544,-68.497,1.15E+05
17293,-55.62,-1,-65.008,7.91E+05
17294,-53.591,-1,-63.86,9.76E+05
17295,-54.369,-2.76,-65.596,6.07E+05
17296,-52.306,-2.4158,-64.616,9.05E+05
17297,-71.921,-1,-70.142,9.92E+05
17298,-67.155,-1,-69.725,1.14E+06
17299,-69.497,-2.75,-70.407,1.21E+06
17300,-71.333,-2.1302,-70.296,1.16E+06
17301,-67.814,-2.3945,-72.004,9.41E+05
17302,-70.472,-1.9601,-72.089,6.51E+05
17303,-75.585,-1,-67.067,8.93E+05
17304,-73.575,-2.1302,-69.336,9.18E+05
17305,-76.665,-2.4571,-68.572,6.78E+05
17306,-75.329,-2.5719,-70.264,6.39E+05
17307,-76.002,-1,-62.302,1.74E+06
17308,-75.449,-3.339,-67.314,6.74E+05
17309,-75.279,-2.1302,-67.592,7.94E+05
17310,-76.129,-4.1041,-65.597,1.60E+06
17311,-76.174,-2.9183,-62.978,2.01E+06
17312,-78.155,-2.5687,-63.705,8.15E+05
17313,-77.769,-2.4571,-66.451,1.01E+06
17314,-78.863,-1.79,-64.955,6.19E+05
17315,-72.927,-1,-58.637,1.89E+06
17316,-74.052,-2.9826,-59.388,1.80E+06
17317,-75.247,-2.9183,-60.722,2.46E+06
17318,-74.863,-1,-58.287,2.11E+06
17319,-76.781,-2.3012,-58.997,1.52E+06
17320,-77.436,-2.5687,-61.424,1.19E+06
17321,-68.162,-1,-58.22,1.88E+06
17322,-71.912,-2.9826,-58.218,1.73E+06
17323,-69.895,-2.6477,-57.933,2.33E+06
17324,-71.28,-1,-56.003,1.72E+06
17325,-69.096,-1,-56.563,1.54E+06
17326,-72.741,-1,-57.182,1.98E+06
17327,-70.714,-2.7543,-56.452,1.62E+06
17328,-64.498,-1,-61.295,2.01E+06
17329,-67.515,-2.6477,-58.464,2.16E+06
17330,-65.52,-2.6477,-59.866,1.63E+06
17331,-63.708,-1,-57.569,1.76E+06
17332,-66.815,-1,-57.282,1.42E+06
17333,-63.895,-1,-59.612,1.66E+06
17334,-65.435,-2.8467,-56.963,1.88E+06
17335,-64.124,-2.8133,-57.957,1.84E+06
17336,-64.081,-1,-66.06,1.86E+06
17337,-64.213,-2.6477,-61.925,2.02E+06
17338,-63.792,-2.5345,-64.133,2.55E+06
17339,-60.929,-1,-63.701,1.43E+06
17340,-62.737,-1,-65.521,1.72E+06
17341,-62.79,-1,-61.734,2.02E+06
17342,-62.355,-3.0349,-62.384,1.74E+06
17343,-67.155,-2.75,-69.725,9.83E+05
17344,-64.782,-3.626,-67.557,1.79E+06
17345,-64.249,-2.5345,-66.528,1.97E+06
17346,-65.828,-3.6376,-68.797,9.35E+05
17347,-63.456,-1,-67.802,1.22E+06
17348,-65.693,-2.3945,-70.9,1.19E+06
17349,-63.665,-2.429,-70.204,1.07E+06
17350,-48.488,-1.1142,83.782,2.29E+07
17351,-47.576,-1,81.912,4.23E+07
17352,-50.558,-1,84.913,1.70E+07
17353,-51.164,-1,81.593,3.06E+07
17354,-49.446,-1.0521,84.492,1.65E+07
17355,-49.291,-1,81.463,3.70E+07
17356,-49.612,-2.6492,82.883,2.42E+07
17357,-47.885,-1.926,84.325,2.09E+07
17358,-46.154,-2.5,82.574,3.69E+07
17359,-46.788,-1.4393,82.622,3.83E+07
17360,-49.428,-2.5,85.934,1.89E+07
17361,-47.8,-4.375,84.402,2.86E+07
17362,-48.809,-1.7283,85.121,1.48E+07
17363,-46.566,-4.375,83.031,2.73E+07
17364,-49.054,-3.3992,83.385,2.73E+07
17365,-47.15,-1.1142,82.296,4.10E+07
17366,-49.091,-1.3124,84.878,1.56E+07
17367,-49.217,-2.8688,83.238,2.54E+07
17368,-39.572,-2.5,75.263,9.43E+07
17369,-37.946,-1.8596,73.243,1.21E+08
17370,-39.175,-1.4393,74.166,1.14E+08
17371,-39.341,-1.9375,74.844,1.07E+08
17372,-38.497,-4.4154,74.07,6.40E+07
17373,-37.056,-3.8124,72.47,6.78E+07
17374,-39.029,-3.568,71.655,7.44E+07
17375,-39.56,-2.8413,73.587,9.03E+07
17376,-42.863,-2.5,78.919,7.03E+07
17377,-45.142,-1.4393,80.794,5.73E+07
17378,-44.105,-2.0036,80.172,6.65E+07
17379,-43.686,-4.375,79.833,3.90E+07
17380,-44.92,-4.375,81.203,3.70E+07
17381,-45.042,-2.9435,79.531,5.25E+07
17382,-42.159,-1.4393,77.48,9.11E+07
17383,-40.987,-1.9375,76.671,9.87E+07
17384,-42.459,-2.0036,78.344,8.16E+07
17385,-42.04,-4.375,78.005,5.23E+07
17386,-40.142,-4.4154,75.897,5.37E+07
17387,-42.525,-3.9294,75.817,5.99E+07
17388,-43.397,-2.9435,77.703,6.76E+07
17389,-41.206,-2.8413,75.415,8.12E+07
17390,-38.09,-1.0961,72.166,1.41E+08
17391,-39.547,-1,72.994,1.29E+08
17392,-38.814,-1,69.18,1.34E+08
17393,-40.48,-1,70.695,1.32E+08
17394,-39.17,-2.818,70.691,9.36E+07
17395,-39.701,-2.0913,72.623,1.09E+08
17396,-39.417,-1.0986,73.65,1.28E+08
17397,-39.067,-3.0088,71.323,9.26E+07
17398,-39.598,-2.2821,73.255,1.08E+08
17399,-42.223,-1,75.967,1.13E+08
17400,-40.862,-1.119,75.329,1.20E+08
17401,-42.971,-1,73.84,1.19E+08
17402,-41.818,-1,72.182,1.31E+08
17403,-41.04,-2.0913,74.109,1.01E+08
17404,-44.9,-1,78.939,7.93E+07
17405,-42.2,-1.119,76.816,1.05E+08
17406,-43.643,-1.1481,78.514,8.83E+07
17407,-44.31,-1,75.326,1.04E+08
17408,-45.567,-1,76.932,9.63E+07
17409,-43.697,-3.1794,75.998,6.23E+07
17410,-44.569,-2.1935,77.884,7.22E+07
17411,-42.378,-2.0913,75.596,8.61E+07
17412,-44.981,-1.1481,80.001,6.94E+07
17413,-45.785,-3.625,81.043,3.56E+07
17414,-46.905,-1,78.418,7.75E+07
17415,-47.953,-1,79.977,5.52E+07
17416,-48.273,-2.6492,81.397,3.92E+07
17417,-45.907,-2.1935,79.37,5.38E+07
17418,-68.378,-1.1142,68.52,2.02E+07
17419,-68.934,-1,70.813,1.49E+07
17420,-66.807,-1,67.156,4.18E+07
17421,-65.989,-1,72.101,2.22E+07
17422,-65.074,-1,69.891,3.95E+07
17423,-68.725,-1.0622,69.386,1.58E+07
17424,-64.836,-1,68.066,4.78E+07
17425,-67.804,-2.24,70.629,1.85E+07
17426,-67.261,-1.8766,67.785,2.63E+07
17427,-67.289,-1.1142,66.843,4.11E+07
17428,-69.179,-1.3352,69.137,1.55E+07
17429,-67.007,-1.4791,65.446,4.94E+07
17430,-68.249,-2.4596,70.34,2.00E+07
17431,-67.706,-2.0963,67.496,2.65E+07
17432,-71.291,-2.5,74.309,1.93E+07
17433,-70.562,-1.4374,72.457,1.44E+07
17434,-70.405,-1.7624,71.012,1.27E+07
17435,-71.113,-1.9554,73.603,1.53E+07
17436,-71.161,-4.3758,73.224,2.87E+07
17437,-69.321,-2.99,72.264,2.24E+07
17438,-70.902,-2.5,78.749,1.98E+07
17439,-70.781,-1.4316,77.012,2.04E+07
17440,-70.951,-1.9382,78.052,1.91E+07
17441,-71.23,-1.9776,75.856,1.72E+07
17442,-71.133,-4.3758,77.68,2.52E+07
17443,-71.332,-4.3758,75.453,2.84E+07
17444,-69.496,-2.99,74.485,2.27E+07
17445,-69.272,-2.7101,77.075,2.25E+07
17446,-69.09,-2.5,82.82,1.76E+07
17447,-69.417,-1.4218,81.361,2.61E+07
17448,-69.058,-1.8663,82.611,2.21E+07
17449,-70.324,-1.9626,80.221,2.01E+07
17450,-69.656,-4.3758,81.884,1.70E+07
17451,-70.569,-4.3758,79.843,2.39E+07
17452,-68.715,-2.7101,79.232,2.38E+07
17453,-67.708,-3.1571,81.89,1.75E+07
17454,-66.051,-2.5,86.079,1.59E+07
17455,-67.698,-1.9239,84.414,2.15E+07
17456,-66.89,-4.3758,85.379,7.72E+06
17457,-68.418,-4.3758,83.746,1.37E+07
17458,-66.479,-3.1571,83.748,1.74E+07
17459,-62.116,-2.5,88.171,1.79E+07
17460,-63.811,-1.9613,87.361,2.21E+07
17461,-66.013,-1.8534,85.923,2.15E+07
17462,-63.138,-4.3758,87.782,1.48E+07
17463,-65.114,-4.3758,86.736,8.49E+06
17464,-64.711,-3.1571,85.104,1.74E+07
17465,-62.552,-3.0108,85.982,2.06E+07
17466,-57.715,-2.5,88.868,2.03E+07
17467,-59.314,-1.8963,88.659,2.09E+07
17468,-61.713,-1.913,88.174,2.18E+07
17469,-58.807,-4.3758,88.833,2.42E+07
17470,-61.016,-4.3758,88.488,1.78E+07
17471,-60.439,-3.0108,86.689,2.04E+07
17472,-58.758,-2.9668,87.831,2.14E+07
17473,-53.326,-2.5,88.094,2.01E+07
17474,-54.959,-2.0515,88.489,1.80E+07
17475,-57.052,-1.8677,88.706,2.03E+07
17476,-54.371,-4.3758,88.417,2.88E+07
17477,-56.572,-4.3758,88.81,2.62E+07
17478,-55.512,-3.4645,87.026,2.40E+07
17479,-56.53,-2.9668,87.811,2.17E+07
17480,-49.428,-4.375,85.934,2.92E+07
17481,-50.602,-1.739,86.523,1.25E+07
17482,-52.816,-2.0222,87.818,1.58E+07
17483,-52.264,-4.3758,87.667,2.81E+07
17484,-50.798,-3.3992,84.772,2.67E+07
17485,-53.412,-3.4645,86.282,2.22E+07
17486,-54.537,-1,86.907,2.31E+07
17487,-55.143,-1,83.857,3.68E+07
17488,-52.934,-1,82.942,2.37E+07
17489,-51.283,-1.0521,85.889,1.28E+07
17490,-53.429,-1.1416,87.213,1.54E+07
17491,-53.474,-2.9186,83.374,2.36E+07
17492,-51.382,-2.6492,84.232,2.19E+07
17493,-53.995,-2.7145,85.742,1.84E+07
17494,-58.969,-1,87.315,3.11E+07
17495,-57.283,-1,84.468,4.36E+07
17496,-55.584,-1.1526,87.826,2.17E+07
17497,-57.695,-1.0919,87.885,2.64E+07
17498,-56.135,-2.7145,86.353,2.46E+07
17499,-58.834,-2.2608,85.997,2.48E+07
17500,-57.153,-2.2168,87.139,2.42E+07
17501,-63.245,-1,86.078,3.51E+07
17502,-61.708,-1,83.342,5.44E+07
17503,-59.499,-1,84.258,4.47E+07
17504,-59.911,-1.0803,87.679,2.77E+07
17505,-62.285,-1.115,87.13,2.99E+07
17506,-61.049,-2.2608,85.786,2.74E+07
17507,-66.776,-1,83.369,3.63E+07
17508,-63.695,-1,82.338,5.81E+07
17509,-64.281,-1.1005,86.123,3.21E+07
17510,-66.372,-1.0956,84.534,3.23E+07
17511,-65.195,-2.4071,83.904,2.79E+07
17512,-63.035,-2.2608,84.783,2.97E+07
17513,-69.077,-1,79.559,3.04E+07
17514,-66.094,-1,78.47,3.41E+07
17515,-65.178,-1,80.68,5.66E+07
17516,-67.856,-1.0942,82.875,3.12E+07
17517,-69.259,-1.1045,80.558,2.76E+07
17518,-65.564,-2.1302,80.211,3.94E+07
17519,-67.684,-1.9601,79.588,3.03E+07
17520,-66.678,-2.4071,82.246,2.63E+07
17521,-69.831,-1,75.172,2.14E+07
17522,-66.871,-1,76.385,3.19E+07
17523,-70.03,-1.1192,78.47,2.37E+07
17524,-70.385,-1.1189,76.278,2.02E+07
17525,-68.461,-1.9601,77.503,2.57E+07
17526,-66.834,-1,74.16,2.70E+07
17527,-69.646,-1.0622,71.51,1.25E+07
17528,-70.348,-1.1188,74.051,1.55E+07
17529,-68.649,-2.24,72.688,1.89E+07
17530,-68.425,-1.9601,75.278,2.05E+07
17531,-59.849,-1.0961,55.47,1.30E+08
17532,-60.271,-1,57.092,1.23E+08
17533,-56.777,-1,55.396,1.28E+08
17534,-57.9,-0.73451,52.44,1.24E+08
17535,-59.444,-3.3939,54.441,7.41E+07
17536,-57.857,-1,57.275,1.26E+08
17537,-57.332,-2.5794,54.376,9.13E+07
17538,-59.103,-2.6298,56.594,9.11E+07
17539,-60.938,-1.0986,57.136,1.25E+08
17540,-60.082,-3.5847,54.505,7.68E+07
17541,-59.741,-2.8206,56.657,9.32E+07
17542,-64.629,-1,63.801,7.84E+07
17543,-65.52,-1.1362,64.027,7.08E+07
17544,-63.746,-1,66.388,6.88E+07
17545,-64.539,-3.2566,65.051,4.28E+07
17546,-66.172,-1.8766,66.107,4.67E+07
17547,-62.45,-1,60.446,1.10E+08
17548,-64.431,-1.1362,62.35,8.66E+07
17549,-61.002,-1,62.752,1.02E+08
17550,-62.657,-1,64.711,8.44E+07
17551,-63.45,-3.2566,63.374,5.71E+07
17552,-63.084,-2.2825,61.771,7.53E+07
17553,-63.342,-1.1362,60.672,1.02E+08
17554,-59.913,-1,61.074,1.17E+08
17555,-58.946,-1,58.953,1.29E+08
17556,-60.193,-2.6298,58.271,8.65E+07
17557,-61.995,-2.2825,60.093,9.06E+07
17558,-52.047,-1,56.224,1.34E+08
17559,-52.157,-0.5,54.549,1.29E+08
17560,-53.666,-0.5,53.299,1.31E+08
17561,-55.459,-1,57.402,1.27E+08
17562,-53.094,-1,57.87,1.30E+08
17563,-54.935,-2.5794,54.502,9.15E+07
17564,-56.706,-2.6298,56.72,9.12E+07
17565,-53.97,-2.5738,56.597,9.12E+07
17566,-52.712,-2.6989,54.851,9.12E+07
17567,-47.65,-1,58.155,1.39E+08
17568,-49.859,-0.5,55.243,1.34E+08
17569,-47.676,-0.5,56.202,1.36E+08
17570,-49.088,-1,59.06,1.39E+08
17571,-50.795,-1,58.564,1.35E+08
17572,-51.672,-2.5738,57.292,9.64E+07
17573,-48.232,-2.4639,55.225,1.04E+08
17574,-49.015,-2.5434,57.511,9.82E+07
17575,-50.413,-2.6989,55.546,9.62E+07
17576,-43.84,-1,61.078,1.39E+08
17577,-45.61,-0.5,57.424,1.38E+08
17578,-43.694,-0.5,58.947,1.39E+08
17579,-45.581,-1,62.095,1.36E+08
17580,-47.022,-1,60.283,1.41E+08
17581,-45.896,-2.7435,60.648,9.52E+07
17582,-44.452,-2.2122,57.684,1.12E+08
17583,-46.948,-2.5434,58.733,9.92E+07
17584,-43.825,-2.8497,59.812,9.73E+07
17585,-45.191,-3.8799,58.907,7.02E+07
17586,-40.837,-1,64.825,1.33E+08
17587,-40.488,-0.5,62.487,1.37E+08
17588,-41.979,-0.5,60.627,1.36E+08
17589,-43.865,-1,63.775,1.34E+08
17590,-42.35,-2.7926,63.846,9.27E+07
17591,-44.181,-2.7435,62.328,9.36E+07
17592,-40.634,-3.8621,63.44,6.88E+07
17593,-42.11,-2.8497,61.492,9.53E+07
17594,-39.222,-0.5,64.527,1.34E+08
17595,-37.67,-0.5,65.713,1.33E+08
17596,-42.599,-1,65.815,1.30E+08
17597,-41.223,-1,68.412,1.27E+08
17598,-37.637,-2.1668,66.379,1.01E+08
17599,-39.913,-2.818,68.408,8.70E+07
17600,-41.085,-2.7926,65.886,8.82E+07
17601,-39.368,-3.8621,65.481,6.43E+07
17602,-63.607,-1,77.76,5.28E+07
17603,-63.607,-1,72.977,3.76E+07
17604,-64.082,-2.75,75.369,2.74E+07
17605,-63.812,-2.1302,77.188,4.03E+07
17606,-65.897,-2.24,73.897,2.59E+07
17607,-65.673,-1.9601,76.487,3.09E+07
17608,-60.224,-1,81.143,6.24E+07
17609,-62.66,-2.1302,79.338,6.08E+07
17610,-63.752,-2.4071,81.354,4.85E+07
17611,-61.592,-2.2608,82.232,4.99E+07
17612,-55.441,-1,81.143,3.69E+07
17613,-60.482,-3.339,81.029,3.70E+07
17614,-60.774,-2.1302,80.883,4.44E+07
17615,-58.705,-4.1586,81.557,3.10E+07
17616,-56.095,-2.9186,81.372,3.54E+07
17617,-56.684,-2.7145,83.503,3.60E+07
17618,-59.383,-2.2608,83.147,3.96E+07
17619,-52.058,-1,77.76,5.26E+07
17620,-52.707,-2.9822,78.946,5.30E+07
17621,-53.93,-2.9186,80.25,3.52E+07
17622,-51.54,-1,79.658,4.28E+07
17623,-51.861,-2.6492,81.078,3.19E+07
17624,-52.058,-1,72.977,5.22E+07
17625,-51.728,-2.9822,76.712,6.94E+07
17626,-51.621,-2.6477,74.678,6.72E+07
17627,-49.577,-1,75.89,7.91E+07
17628,-50.325,-1,73.763,8.09E+07
17629,-50.625,-1,77.448,5.57E+07
17630,-50.018,-2.9924,76.011,5.41E+07
17631,-49.903,-2.6354,74.01,6.10E+07
17632,-55.441,-1,69.594,4.77E+07
17633,-52.358,-2.6477,72.354,4.97E+07
17634,-53.928,-2.6477,70.488,3.72E+07
17635,-51.798,-1,68.483,6.35E+07
17636,-51.24,-1,71.553,6.61E+07
17637,-53.816,-1,68.847,5.44E+07
17638,-52.014,-2.6839,70.324,3.97E+07
17639,-60.224,-1,69.594,5.86E+07
17640,-56.093,-2.6477,69.366,5.07E+07
17641,-58.328,-2.5352,69.138,6.44E+07
17642,-58.148,-1,66.249,8.33E+07
17643,-59.804,-1,68.208,6.43E+07
17644,-56.026,-1,67.932,6.64E+07
17645,-63.607,-2.75,72.977,3.64E+07
17646,-61.653,-3.6259,70.423,6.02E+07
17647,-60.675,-2.5352,69.802,5.94E+07
17648,-62.798,-3.6376,71.573,4.84E+07
17649,-62.013,-1,69.124,6.55E+07
17650,-64.982,-2.24,71.687,3.95E+07
17651,-64.439,-1.8766,68.843,4.63E+07
17652,-20.013,1.2192,-40.399,7.83E+08
17653,-20,1.5333,-41.268,4.92E+08
17654,-19.309,1.976,-40.804,4.53E+08
17655,-19.767,1.6113,-40.879,5.58E+08
17656,-20.013,0.80291,-40.711,9.27E+08
17657,-19.336,1.159,-40.353,8.69E+08
17658,-19.129,-0.56402,-39.533,7.66E+08
17659,-19.794,0.86933,-40.332,9.99E+08
17660,-19.515,0.43632,-40.859,8.63E+08
17661,20.931,0.82792,-42.763,3.76E+08
17662,19.01,1.1275,-41.714,2.80E+08
17663,21.263,-1.2374,-39.815,2.55E+08
17664,19.311,-1.2375,-40.731,2.48E+08
17665,-13.174,-19.238,39.099,7.15E+07
17666,-13.174,-21.149,39.133,9.61E+07
17667,-15.177,-17.559,39.395,6.69E+07
17668,-13.934,-18.633,41.727,6.42E+07
17669,-13.495,-20.339,40.449,4.15E+07
17670,-11,-21.149,39.133,2.02E+08
17671,-13.003,-17.559,39.395,6.07E+07
17672,-11,-17.62,39.384,1.52E+08
17673,-11.894,-18.628,41.79,1.55E+08
17674,-9.2836,-20.391,38.696,1.38E+08
17675,-9.6617,-17.84,38.727,1.44E+08
17676,-10.165,-19.204,40.57,1.63E+08
17677,-11.321,-20.339,40.449,1.51E+08
17678,-11,-23.954,40.78,1.77E+08
17679,-9.0154,-23.954,41.205,1.88E+08
17680,-11,-24.802,38.834,2.44E+08
17681,-11,-23.825,40.818,1.65E+08
17682,-9.2836,-22.227,39.088,1.68E+08
17683,-10.107,-23.042,41.161,1.65E+08
17684,-10.165,-21.04,40.962,1.84E+08
17685,-11.321,-22.174,40.841,1.76E+08
17686,-9.0254,-25,42.149,1.75E+08
17687,-11,-25.44,39.553,1.84E+08
17688,-11,-24.807,41.77,1.46E+08
17689,-10.107,-24.087,42.058,1.33E+08
17690,-8.977,-25.474,39.985,1.89E+08
17691,-4.8784,-25.382,40.898,2.57E+08
17692,-7.2991,-23.272,40.41,1.29E+08
17693,-8.1227,-24.087,42.483,1.48E+08
17694,-4.4544,-23.536,41.514,1.73E+08
17695,-6.9146,-23.338,42.571,1.52E+08
17696,-6.8998,-26.658,38.777,2.78E+08
17697,-9.1184,-26.123,36.458,1.66E+08
17698,-9.2836,-24.119,38.038,1.83E+08
17699,3.48E-08,-26.412,39.624,3.41E+08
17700,-4.9972,-25.978,37.333,2.05E+08
17701,-5.1624,-23.975,38.913,2.15E+08
17702,-2.1954,-24.79,37.603,2.11E+08
17703,-0.69027,-26.936,37.563,2.35E+08
17704,-2.3178,-24.239,40.017,2.49E+08
17705,-3.2064,-27.621,37.382,2.21E+08
17706,-0.71906,-25.201,38.723,2.55E+08
17707,46.8,-25,6.9611,8.69E+07
17708,48.298,-22.952,3.067,9.62E+07
17709,49.037,-24.693,3.5751,1.03E+08
17710,49.262,-24.899,6.1271,8.79E+07
17711,46.177,-23.329,4.2672,7.60E+07
17712,48.957,-23.217,5.147,8.82E+07
17713,45.627,-22.603,6.24,6.92E+07
17714,46.8,-25,11.115,9.85E+07
17715,49.262,-24.899,8.2041,8.87E+07
17716,49.758,-24.854,10.953,8.75E+07
17717,44.678,-23.074,10.608,9.48E+07
17718,48.957,-23.217,7.224,8.68E+07
17719,47.461,-22.949,10.157,8.63E+07
17720,45.627,-22.603,8.317,7.42E+07
17721,46.8,-25,15.269,1.14E+08
17722,49.758,-24.854,13.03,9.50E+07
17723,44.76,-25,15.516,1.40E+08
17724,44.678,-23.074,12.685,1.04E+08
17725,47.461,-22.949,12.234,9.37E+07
17726,48.394,-23.046,14.135,9.62E+07
17727,45.674,-23.065,14.511,1.10E+08
17728,49.758,-24.854,15.107,1.03E+08
17729,50.45,-24.777,17.515,1.01E+08
17730,44.76,-25,17.593,1.47E+08
17731,46.811,-21.881,17.911,1.05E+08
17732,46.427,-24.534,19.479,1.26E+08
17733,49.059,-23.108,18.374,1.02E+08
17734,48.394,-23.046,16.212,1.04E+08
17735,45.674,-23.065,16.588,1.18E+08
17736,47.951,-23.969,19.105,1.08E+08
17737,6.1014,-26.695,38.877,2.40E+08
17738,4.3652,-23.917,41.113,2.11E+08
17739,2.0673,-26.936,37.563,2.37E+08
17740,3.8145,-25.549,37.498,2.28E+08
17741,2.0385,-25.201,38.723,2.57E+08
17742,-11.865,-12.5,47.525,2.53E+08
17743,-12.655,-15.262,44.86,1.95E+08
17744,-11.794,-14.95,47.836,2.20E+08
17745,-14.765,-12.5,44.247,3.89E+08
17746,-14.119,-12.5,46.367,3.83E+08
17747,-12.61,-10.61,46.527,2.57E+08
17748,-10.436,-13.507,45.959,2.16E+08
17749,-11.696,-10.595,43.807,2.98E+08
17750,-10.641,-10.968,45.959,2.42E+08
17751,-10.747,-13.487,43.505,2.43E+08
17752,-13.654,-10.847,44.556,3.05E+08
17753,-11.883,-13.94,43.897,2.04E+08
17754,-12.256,-12.5,50.934,1.76E+08
17755,-12.256,-12.357,50.933,1.84E+08
17756,-11.34,-14.967,50.19,1.85E+08
17757,-13.553,-12.5,48.694,3.18E+08
17758,-12.043,-10.61,48.854,2.08E+08
17759,-9.8702,-13.507,48.286,1.78E+08
17760,-9.7198,-12.556,51.929,1.62E+08
17761,-10.075,-10.968,48.286,2.10E+08
17762,-9.897,-11.492,50.818,1.66E+08
17763,-8.7104,-14.044,50.521,1.46E+08
17764,-18.089,-12.5,51.853,3.17E+08
17765,-20.988,-12.5,54.624,2.96E+08
17766,-19.448,-12.346,52.914,3.26E+08
17767,-20.189,-12.5,50.376,3.37E+08
17768,-21.487,-12.5,52.53,2.81E+08
17769,-14.729,-12.5,51.364,2.58E+08
17770,-13.124,-12.357,51.994,2.71E+08
17771,-14.729,-12.354,51.363,2.39E+08
17772,-14.421,-12.5,49.755,3.41E+08
17773,-18.089,-12.346,51.853,3.16E+08
17774,-16.452,-12.353,51.312,2.78E+08
17775,-18.691,-12.5,49.575,3.27E+08
17776,-16.085,-12.5,49.413,3.89E+08
17777,-36.386,-12.5,71.726,7.09E+07
17778,-38.259,-12.5,71.26,4.47E+07
17779,-24.068,-12.5,58.045,2.46E+08
17780,-20.988,-12.346,54.624,2.94E+08
17781,-20.95,-10.55,54.582,1.81E+08
17782,-25.325,-12.5,55.183,2.37E+08
17783,-23.027,-12.5,54.24,2.51E+08
17784,-22.124,-9.7242,55.886,1.61E+08
17785,-23.553,-9.75,57.472,1.64E+08
17786,-24.226,-10.842,55.263,1.88E+08
17787,-25.183,-11.105,57.223,1.94E+08
17788,-27.147,-12.5,61.465,2.10E+08
17789,-28.707,-12.5,59.016,2.04E+08
17790,-26.865,-12.5,56.893,2.17E+08
17791,-26.28,-9.75,60.501,1.40E+08
17792,-25.092,-9.75,59.183,1.46E+08
17793,-26.723,-11.105,58.933,1.75E+08
17794,-30.227,-12.5,64.885,1.79E+08
17795,-30.247,-12.5,60.726,1.88E+08
17796,-31.536,-12.5,63.003,1.76E+08
17797,-27.82,-9.75,62.211,1.24E+08
17798,-29.392,-9.75,63.958,1.17E+08
17799,-30.289,-10.667,61.624,1.37E+08
17800,-31.754,-10.656,63.361,1.32E+08
17801,-28.262,-11.105,60.643,1.59E+08
17802,-33.307,-12.5,68.305,1.56E+08
17803,-33.075,-12.5,64.713,1.61E+08
17804,-34.187,-12.5,66.289,1.52E+08
17805,-32.504,-9.75,67.414,9.88E+07
17806,-30.932,-9.75,65.668,1.03E+08
17807,-33.294,-10.656,65.071,1.18E+08
17808,-34.264,-10.711,67.486,1.19E+08
17809,-36.838,-12.5,69.575,1.09E+08
17810,-35.726,-12.5,67.999,1.44E+08
17811,-34.044,-9.75,69.124,9.11E+07
17812,-35.516,-8.8124,70.759,6.50E+07
17813,-35.803,-10.711,69.196,1.11E+08
17814,-39.629,-12.5,67.083,5.76E+07
17815,-37.718,-12.5,67.558,1.06E+08
17816,-37.795,-10.711,68.756,7.45E+07
17817,-41.879,-12.5,63.307,4.61E+07
17818,-38.628,-12.5,65.558,8.82E+07
17819,-39.738,-12.5,63.617,8.47E+07
17820,-44.899,-12.5,60.113,6.05E+07
17821,-42.489,-12.5,59.905,8.30E+07
17822,-41.063,-12.5,61.864,8.36E+07
17823,-48.543,-12.5,57.657,6.90E+07
17824,-46.123,-12.5,56.292,1.06E+08
17825,-44.166,-12.5,58.483,1.03E+08
17826,-46.429,-10.719,56.746,7.32E+07
17827,-52.637,-12.5,56.055,6.10E+07
17828,-48.069,-12.5,55.271,9.71E+07
17829,-51.098,-12.5,54.431,9.79E+07
17830,-53.22,-12.5,53.86,9.87E+07
17831,-13.003,-15.941,39.68,6.15E+07
17832,-13.791,-16.941,42.039,5.96E+07
17833,-13.126,-15.629,41.133,7.16E+07
17834,-20.563,-15.195,-40.793,1.29E+08
17835,-20.239,-15.973,-37.273,1.72E+08
17836,-21.186,-14.267,-37.273,2.18E+08
17837,-20.24,-15.974,-39.007,1.29E+08
17838,-22.713,-13.054,-39.867,1.72E+08
17839,-21.042,-12.501,-39.995,1.60E+08
17840,-19.25,-15.906,-40.656,9.63E+07
17841,-20.028,-16.334,-39.719,1.08E+08
17842,-19.477,-14.092,-37.638,1.56E+08
17843,-19.724,-13.743,-41.783,1.17E+08
17844,-17.889,-14.26,-39.659,1.03E+08
17845,-18.893,-12.368,-39.987,1.19E+08
17846,-21.147,-12.949,-41.251,1.57E+08
17847,-19.827,-15.28,-38.678,1.40E+08
17848,-19.572,-15.913,-44.126,7.22E+07
17849,-18.927,-16.526,-42.301,6.93E+07
17850,-19.705,-16.954,-41.363,8.11E+07
17851,-19.4,-16.889,-43.806,6.07E+07
17852,-19.401,-14.363,-43.428,1.00E+08
17853,-20,-16.752,-46.579,9.20E+07
17854,-19.429,-16.748,-46.194,5.33E+07
17855,-19.257,-17.723,-45.874,3.72E+07
17856,-19.377,-17.845,-46.909,4.25E+07
17857,-19.16,-17.395,-48.329,4.91E+07
17858,-20.381,-15.587,-35.394,2.35E+08
17859,-20,-18.75,-35.387,2.09E+08
17860,-20,-17.5,-37.12,1.54E+08
17861,-19.042,-18.75,-37.337,1.25E+08
17862,-19.582,-15.707,-33.177,1.96E+08
17863,-18.996,-17.928,-33.817,1.73E+08
17864,-18.232,-17.619,-36.44,1.51E+08
17865,-19.011,-15.546,-35.759,1.85E+08
17866,-19.36,-16.734,-36.799,1.67E+08
17867,-23.087,-12.881,-35.394,2.65E+08
17868,-23.898,-12.879,-33.834,3.01E+08
17869,-26.802,-12.5,-34.05,2.39E+08
17870,-25,-12.5,-37.988,2.37E+08
17871,-27.233,-12.5,-36.551,1.85E+08
17872,-23.09,-11.904,-34.35,2.50E+08
17873,-25.752,-10.702,-36.452,2.24E+08
17874,-22.88,-10.454,-36.078,2.52E+08
17875,-24.929,-10.82,-33.745,2.43E+08
17876,-22.054,-13.759,-33.869,3.13E+08
17877,-23.087,-12.881,-37.988,2.24E+08
17878,-21.323,-12.637,-34.35,2.56E+08
17879,-21.308,-12.187,-38.116,2.19E+08
17880,-20.314,-13.939,-33.177,2.39E+08
17881,-19.743,-13.778,-35.759,2.23E+08
17882,-21.112,-11.187,-36.078,2.52E+08
17883,-20.093,-14.966,-36.799,2.04E+08
17884,-25.661,-12.901,-32.452,2.75E+08
17885,-25.198,-13.991,-30.77,3.49E+08
17886,-22.072,-12.634,-32.908,3.01E+08
17887,-22.894,-12.341,-30.598,2.92E+08
17888,-21.063,-13.937,-31.735,2.89E+08
17889,-22.937,-14.349,-30.268,3.03E+08
17890,-23.911,-11.55,-32.303,2.89E+08
17891,5.2896,-20.602,-40.171,1.12E+08
17892,3.667,-19.939,-41.679,8.07E+07
17893,5.5,-19.773,-42.049,8.77E+07
17894,6.176,-19.678,-42.3,1.03E+08
17895,4.7888,-18.944,-40.879,1.02E+08
17896,6.1118,-19.122,-41.729,8.49E+07
17897,3.5344,-20.618,-40.266,9.93E+07
17898,2.9848,-21.7,-39.155,1.40E+08
17899,3.4164,-21.407,-37.478,1.32E+08
17900,4.5894,-19.813,-39.559,1.22E+08
17901,5.5843,-22.235,-36.92,1.31E+08
17902,5.4599,-20.319,-37.494,1.26E+08
17903,-5.2896,-20.602,-40.171,1.65E+08
17904,-3.667,-19.939,-41.679,1.19E+08
17905,-6.4018,-20.545,-40.267,1.69E+08
17906,-5.5,-19.773,-42.049,1.41E+08
17907,-6.1761,-19.677,-42.3,2.21E+08
17908,-4.6635,-18.911,-40.832,1.38E+08
17909,-6.0111,-19.016,-41.492,1.51E+08
17910,-3.534,-20.618,-40.266,1.21E+08
17911,-6.2056,-21.562,-39.03,1.76E+08
17912,-2.1333,-21.702,-39.196,1.62E+08
17913,-4.3289,-20.54,-37.496,1.45E+08
17914,-4.2799,-22.812,-37.458,1.50E+08
17915,-4.4641,-19.78,-39.512,1.43E+08
17916,8.66E-07,-19.928,-41.715,6.70E+07
17917,-3.6668,-19.752,-42.081,9.29E+07
17918,-1.8335,-19.449,-42.417,5.35E+07
17919,-0.44232,-20.625,-40.339,1.06E+08
17920,-0.58461,-18.774,-41.156,8.04E+07
17921,-2.8303,-18.901,-40.868,9.15E+07
17922,3.6668,-19.752,-42.081,7.11E+07
17923,1.29E-04,-19.449,-42.417,5.27E+07
17924,1.8335,-19.449,-42.417,5.26E+07
17925,1.3275,-20.624,-40.33,1.04E+08
17926,1.249,-18.774,-41.156,7.89E+07
17927,2.9556,-18.934,-40.916,8.81E+07
17928,-10.793,-21.517,-38.158,1.52E+08
17929,-8.2279,-19.284,-39.287,1.23E+08
17930,-8.3931,-21.166,-36.747,1.35E+08
17931,-5.4245,-20.409,-37.534,1.42E+08
17932,-5.3754,-22.68,-37.496,1.45E+08
17933,-5.5596,-19.649,-39.55,1.43E+08
17934,-6.9072,-19.754,-40.21,1.53E+08
17935,-20.177,-21.606,-34.04,2.60E+08
17936,-20,-20.368,-35.371,2.36E+08
17937,-17.133,-21.118,-36.246,1.75E+08
17938,-18.957,-21.222,-34.047,1.94E+08
17939,-20.008,-22.749,-31.35,2.23E+08
17940,-19.273,-22.171,-32.816,2.17E+08
17941,-17.124,-20.722,-36.23,1.53E+08
17942,-19.042,-20,-37.328,1.36E+08
17943,-18.996,-19.178,-33.808,1.80E+08
17944,-18.232,-18.869,-36.431,1.62E+08
17945,-17.416,-20.244,-34.331,1.48E+08
17946,-18.957,-20.854,-34.052,1.70E+08
17947,-38.258,-12.5,-20.348,1.45E+08
17948,-36.88,-12.882,-18.847,2.12E+08
17949,-37.68,-12.938,-16.875,2.14E+08
17950,-40.885,-12.5,-21.119,9.41E+07
17951,-42.093,-11.827,-18.747,9.09E+07
17952,-40.181,-10.97,-17.237,1.28E+08
17953,-39.526,-12.03,-14.802,1.83E+08
17954,-37.587,-11.195,-17.924,1.38E+08
17955,-39.246,-10.796,-19.793,1.21E+08
17956,-35.944,-12.5,-24.202,1.58E+08
17957,-35.826,-12.873,-20.824,2.17E+08
17958,-34.729,-12.882,-22.566,2.24E+08
17959,-38.459,-12.5,-25.055,1.01E+08
17960,-39.829,-12.5,-23.103,9.89E+07
17961,-36.532,-11.195,-19.908,1.45E+08
17962,-35.268,-11.187,-22.164,1.51E+08
17963,-38.19,-10.796,-21.778,1.26E+08
17964,-36.942,-9.7988,-23.528,1.25E+08
17965,-33.244,-12.5,-27.795,1.72E+08
17966,-33.476,-12.873,-24.423,2.31E+08
17967,-32.426,-12.811,-26.054,2.31E+08
17968,-37.204,-12.5,-26.919,1.11E+08
17969,-35.745,-12.5,-28.823,1.10E+08
17970,-34.012,-11.187,-24.029,1.59E+08
17971,-35.933,-10.383,-27.431,1.24E+08
17972,-35.687,-9.7988,-25.393,1.34E+08
17973,-33.595,-10.529,-26.592,1.52E+08
17974,-32.435,-11.759,-25.14,1.78E+08
17975,-30.185,-12.5,-31.09,1.96E+08
17976,-30.99,-12.806,-27.768,2.36E+08
17977,-29.465,-12.877,-29.12,2.50E+08
17978,-32.704,-12.5,-32.659,1.19E+08
17979,-34.303,-12.5,-30.547,1.20E+08
17980,-30.051,-11.079,-28.542,1.85E+08
17981,-34.491,-10.383,-29.155,1.33E+08
17982,-32.473,-10.495,-30.715,1.46E+08
17983,-32.154,-10.529,-28.316,1.61E+08
17984,-30.217,-9.9344,-30.654,1.75E+08
17985,-27.857,-12.872,-30.68,2.61E+08
17986,-31.091,-12.5,-34.225,1.38E+08
17987,-28.999,-12.5,-35.161,1.56E+08
17988,-28.438,-11.079,-30.107,1.99E+08
17989,-27.518,-10.702,-35.062,1.94E+08
17990,-30.861,-10.495,-32.281,1.63E+08
17991,-29.899,-10.309,-34.441,1.58E+08
17992,-28.604,-9.9344,-32.219,1.93E+08
17993,-26.695,-10.82,-32.354,2.16E+08
17994,-19.042,-18.75,-39.063,7.33E+07
17995,-18.232,-17.619,-38.166,9.62E+07
17996,-19.562,-17.788,-39.566,8.69E+07
17997,-19.36,-16.734,-38.526,1.17E+08
17998,-27.233,-12.5,-39.146,1.76E+08
17999,-26.614,-12.5,-41.41,1.64E+08
18000,-25.559,-11.17,-42.26,1.77E+08
18001,-23.076,-11.454,-40.71,2.02E+08
18002,-24.191,-11.784,-42.423,2.12E+08
18003,-25.752,-10.702,-39.047,2.13E+08
18004,-24.298,-10.138,-41.378,2.45E+08
18005,-22.88,-10.454,-38.672,2.23E+08
18006,-23.181,-11.902,-41.966,2.16E+08
18007,5.5,-19.094,-42.632,9.24E+07
18008,6.0787,-18.644,-42.867,1.09E+08
18009,3.6667,-18.657,-42.747,7.16E+07
18010,5.5,-18.067,-42.809,1.10E+08
18011,3.6667,-18.067,-42.809,9.33E+07
18012,6.1408,-19.08,-42.771,9.79E+07
18013,4.7888,-18.297,-41.436,9.85E+07
18014,6.1118,-18.475,-42.286,8.24E+07
18015,3.6667,-19.094,-42.632,6.09E+07
18016,6.2355,-19.468,-42.554,9.26E+07
18017,4.7888,-18.708,-41.259,9.10E+07
18018,6.1118,-18.885,-42.109,7.47E+07
18019,6.8865,-18.559,-43.694,8.97E+07
18020,7.1142,-19.074,-44.272,5.55E+07
18021,7,-18.067,-44.317,6.55E+07
18022,6.8858,-18.007,-43.746,8.12E+07
18023,7,-18.5,-46.08,3.33E+07
18024,7.1142,-19.074,-46.08,3.52E+07
18025,6.9812,-19.016,-43.678,8.05E+07
18026,7.5377,-17.921,-43.869,5.75E+07
18027,7.8028,-18.373,-45.102,4.95E+07
18028,6.0778,-18.033,-42.929,1.14E+08
18029,6.5635,-18.067,-43.253,1.22E+08
18030,6.6561,-19.054,-43.143,1.25E+08
18031,7.3209,-17.976,-43.333,1.03E+08
18032,6.645,-18.451,-42.512,1.02E+08
18033,7.4393,-19.561,-46.08,2.11E+07
18034,7.7574,-18.451,-43.869,5.21E+07
18035,8.0224,-18.903,-45.102,3.90E+07
18036,-5.5,-19.094,-42.632,1.26E+08
18037,-3.6667,-18.657,-42.747,8.67E+07
18038,-6.0787,-18.644,-42.867,1.97E+08
18039,-5.5,-18.067,-42.809,1.47E+08
18040,-6.1409,-19.08,-42.77,1.85E+08
18041,-4.6635,-18.263,-41.389,1.21E+08
18042,-6.0111,-18.369,-42.049,1.20E+08
18043,-3.6667,-19.094,-42.632,7.50E+07
18044,-6.2358,-19.468,-42.552,1.89E+08
18045,-4.6635,-18.674,-41.211,1.13E+08
18046,-6.0111,-18.78,-41.871,1.20E+08
18047,-4.34E-16,-18.657,-42.747,4.99E+07
18048,-3.6667,-18.067,-42.809,1.01E+08
18049,-1.8333,-18.067,-42.809,8.21E+07
18050,-0.58448,-18.137,-41.676,7.00E+07
18051,-2.8301,-18.263,-41.389,7.60E+07
18052,-4.34E-16,-18.067,-42.809,8.05E+07
18053,1.8333,-18.067,-42.809,7.60E+07
18054,1.2489,-18.137,-41.676,6.91E+07
18055,2.9555,-18.297,-41.436,7.51E+07
18056,-7.1142,-19.074,-44.272,2.65E+08
18057,-6.8865,-18.559,-43.694,2.63E+08
18058,-7,-18.067,-44.317,2.71E+08
18059,-6.8858,-18.007,-43.746,2.54E+08
18060,-7,-18.5,-46.08,2.00E+08
18061,-7.1142,-19.074,-46.08,1.98E+08
18062,-6.98,-19.016,-43.678,2.71E+08
18063,-7.7636,-18.157,-43.781,1.98E+08
18064,-7.6922,-18.462,-45.007,2.17E+08
18065,-7.4393,-19.561,-46.08,1.73E+08
18066,-7.2538,-19.505,-43.57,2.44E+08
18067,-7.9832,-18.687,-43.781,1.71E+08
18068,-7.9119,-18.992,-45.007,1.91E+08
18069,-6.0778,-18.033,-42.929,2.03E+08
18070,-6.5635,-18.067,-43.253,2.77E+08
18071,-6.6556,-19.054,-43.142,2.86E+08
18072,-7.5468,-18.212,-43.245,1.97E+08
18073,-6.5443,-18.346,-42.275,2.13E+08
18074,-18.09,-12.199,51.85,2.85E+08
18075,-19.427,-10.395,52.891,2.12E+08
18076,-20.188,-12.346,50.376,3.36E+08
18077,-21.486,-12.346,52.53,2.80E+08
18078,-14.729,-12.211,51.361,2.40E+08
18079,-13.93,-9.5823,51.531,4.24E+08
18080,-14.421,-12.357,49.753,3.42E+08
18081,-12.912,-10.466,49.913,2.56E+08
18082,-10.766,-11.349,51.878,1.87E+08
18083,-18.078,-10.452,51.835,1.89E+08
18084,-15.601,-9.539,51.21,3.79E+08
18085,-18.691,-12.353,49.575,2.98E+08
18086,-16.085,-12.353,49.413,3.57E+08
18087,-17.901,-9.7138,49.978,2.36E+08
18088,-19.277,-6.8083,52.724,8.40E+07
18089,-17.198,-6.0547,51.297,3.34E+08
18090,-20.426,-5.9864,54,7.74E+07
18091,-19.241,-6.1231,50.604,1.54E+08
18092,-20.688,-3.9314,51.844,2.07E+08
18093,-18.619,-3.8036,50.686,2.85E+08
18094,-21.498,-6.3026,51.687,1.01E+08
18095,-17.253,-7.7542,51.404,3.48E+08
18096,-20.151,-10.55,50.334,2.26E+08
18097,-21.449,-10.55,52.488,1.69E+08
18098,-20.546,-7.774,54.133,9.86E+07
18099,-19.361,-7.9107,50.738,1.85E+08
18100,-21.618,-8.0902,51.82,1.13E+08
18101,-11.894,-17.011,42.075,1.33E+08
18102,-9.6617,-16.222,39.012,1.34E+08
18103,-9.9877,-15.238,40.73,1.63E+08
18104,-10.165,-17.587,40.855,1.42E+08
18105,-11.123,-15.691,41.122,1.35E+08
18106,102.23,42.608,21.5,2.85E+07
18107,102.23,47.392,21.5,1.84E+07
18108,101.75,45,19.5,3.43E+07
18109,99.786,46.888,21.5,2.06E+07
18110,99.316,44.748,21.5,1.78E+07
18111,100.76,42.699,21.5,3.09E+07
18112,100.26,43.121,19.725,2.67E+07
18113,100.72,46.538,19.757,2.17E+07
18114,105.61,39.226,21.5,3.08E+07
18115,102.23,42.608,19.5,3.17E+07
18116,104.29,39.969,18.824,3.12E+07
18117,103.03,41.205,18.027,2.87E+07
18118,103.88,38.497,21.5,2.81E+07
18119,101.67,40.489,21.5,3.01E+07
18120,101.18,40.912,19.725,2.52E+07
18121,101.96,38.802,19.947,3.16E+07
18122,110.39,39.226,21.5,2.70E+07
18123,106.5,38.933,18.824,3.57E+07
18124,108.69,38.788,18.754,3.19E+07
18125,110.13,36.905,21.5,2.99E+07
18126,106.09,37.582,21.5,3.16E+07
18127,108.32,36.078,21.5,2.66E+07
18128,107.46,36.725,19.716,2.59E+07
18129,109.69,38.124,20.081,3.03E+07
18130,113.77,42.608,21.5,2.49E+07
18131,111.01,39.525,18.754,2.41E+07
18132,112.88,41.096,18.754,2.76E+07
18133,112.34,37.82,21.5,2.55E+07
18134,115.46,41.244,21.5,1.36E+07
18135,114.03,39.408,21.5,2.10E+07
18136,111.9,39.04,20.081,2.50E+07
18137,114.44,40.999,19.938,1.79E+07
18138,113.94,39.214,19.538,2.03E+07
18139,113.77,47.392,21.5,1.51E+07
18140,114,43.26,18.754,2.75E+07
18141,114.21,45.69,18.754,2.44E+07
18142,116.16,46.978,21.5,1.96E+07
18143,116.38,43.454,21.5,1.57E+07
18144,117.32,45.46,21.5,1.48E+07
18145,115.36,43.209,19.938,2.02E+07
18146,116.76,44.762,19.678,1.54E+07
18147,115.44,47.447,19.521,1.91E+07
18148,110.39,50.774,21.5,9.30E+06
18149,113.47,48.015,18.754,1.38E+07
18150,111.9,49.88,18.754,7.40E+06
18151,115.25,49.188,21.5,7.26E+06
18152,111.93,52.384,21.5,9.41E+06
18153,113.72,50.915,21.5,1.06E+07
18154,111.12,51.804,19.754,7.16E+06
18155,113.44,51.554,19.696,9.11E+06
18156,114.52,49.657,19.521,7.85E+06
18157,105.61,50.774,21.5,1.05E+07
18158,109.74,51.003,18.754,1.17E+07
18159,107.13,51.189,19.374,1.47E+07
18160,105.9,53.178,21.5,1.03E+07
18161,109.72,53.299,21.5,8.23E+06
18162,107.87,53.991,21.5,6.98E+06
18163,108.91,52.719,19.754,9.47E+06
18164,106.86,53.749,19.771,8.13E+06
18165,102.23,47.392,19.5,2.23E+07
18166,103.34,49.168,18.513,1.33E+07
18167,104.83,50.386,19.374,1.16E+07
18168,100.7,49.097,21.5,8.36E+06
18169,103.69,52.262,21.5,1.22E+07
18170,102.21,50.848,21.5,1.22E+07
18171,101.63,48.747,19.757,1.00E+07
18172,102.62,51.488,19.637,1.16E+07
18173,101.75,45,7.5,4.14E+07
18174,102.23,47.392,5.5,2.58E+07
18175,102.23,42.608,5.5,3.58E+07
18176,102.02,46.831,6.7427,3.29E+07
18177,99.786,46.888,5.5,2.51E+07
18178,99.316,44.748,5.5,2.77E+07
18179,100.76,42.699,5.5,4.03E+07
18180,101.75,45,15.5,3.89E+07
18181,102.1,47.068,16.513,2.24E+07
18182,101.96,43.394,16.027,3.38E+07
18183,99.316,44.748,19.5,2.08E+07
18184,98.419,45.024,17.918,1.89E+07
18185,100.26,43.121,17.725,3.02E+07
18186,100.72,46.538,17.757,2.50E+07
18187,99.896,44.711,16.263,2.47E+07
18188,101.75,45,11.5,4.01E+07
18189,102.1,47.068,14.513,2.39E+07
18190,102.22,47.388,12.176,2.26E+07
18191,101.96,43.394,14.027,3.49E+07
18192,102.3,42.43,12.505,3.37E+07
18193,100.13,43.148,12.556,3.32E+07
18194,100.72,46.538,15.757,2.61E+07
18195,99.896,44.711,14.263,2.59E+07
18196,100.5,47.295,12.944,2.55E+07
18197,100.14,44.979,12.099,2.81E+07
18198,102.23,42.608,7.5,3.46E+07
18199,102.22,47.388,10.176,2.26E+07
18200,102.02,46.831,8.7427,3.08E+07
18201,102.3,42.43,10.505,3.34E+07
18202,99.786,46.888,7.5,2.41E+07
18203,99.316,44.748,7.5,2.62E+07
18204,100.76,42.699,7.5,3.88E+07
18205,100.13,43.148,10.556,3.29E+07
18206,100.5,47.295,10.944,2.56E+07
18207,100.14,44.979,10.099,2.82E+07
18208,105.61,50.774,5.5,1.34E+07
18209,103.58,49.416,8.1763,9.86E+06
18210,103.18,48.979,6.7427,1.82E+07
18211,100.7,49.097,5.5,8.07E+06
18212,103.69,52.262,5.5,1.23E+07
18213,102.21,50.848,5.5,1.40E+07
18214,102.04,51.286,6.9201,1.20E+07
18215,104.65,52.231,7.5311,9.62E+06
18216,110.39,50.774,5.5,1.35E+07
18217,105.6,50.772,8.1763,1.14E+07
18218,108.72,51.209,8.211,1.95E+07
18219,105.9,53.178,5.5,1.39E+07
18220,109.72,53.299,5.5,1.02E+07
18221,107.87,53.991,5.5,9.51E+06
18222,106.86,53.146,7.5311,1.23E+07
18223,109.87,51.736,6.6789,1.41E+07
18224,109.54,53.619,7.0101,9.26E+06
18225,113.77,47.392,5.5,9.54E+06
18226,111.04,50.463,8.211,1.40E+07
18227,112.89,48.891,7.9933,6.12E+06
18228,115.25,49.188,5.5,9.91E+06
18229,111.93,52.384,5.5,5.65E+06
18230,113.72,50.915,5.5,8.46E+06
18231,115.37,47.438,7.4086,6.19E+06
18232,112.08,50.821,6.6789,9.13E+06
18233,113.29,49.891,6.7466,8.19E+06
18234,113.77,42.608,5.5,2.44E+07
18235,114.01,46.723,7.9933,1.27E+07
18236,114.23,44.479,8.0964,2.73E+07
18237,116.16,46.978,5.5,1.53E+07
18238,116.38,43.454,5.5,1.07E+07
18239,117.32,45.46,5.5,1.03E+07
18240,116.29,45.229,7.4086,1.33E+07
18241,110.39,39.226,5.5,3.03E+07
18242,113.55,42.136,8.0964,3.23E+07
18243,112.04,40.233,8.1079,2.85E+07
18244,112.34,37.82,5.5,3.36E+07
18245,115.46,41.244,5.5,1.55E+07
18246,114.03,39.408,5.5,2.55E+07
18247,110.69,37.994,7.5331,2.91E+07
18248,113.06,37.684,7.2303,2.75E+07
18249,114.55,39.891,7.411,2.10E+07
18250,105.61,39.226,5.5,3.22E+07
18251,109.91,39.049,8.1079,2.79E+07
18252,107.69,38.758,8.1186,3.74E+07
18253,110.13,36.905,5.5,3.43E+07
18254,106.09,37.582,5.5,2.73E+07
18255,108.32,36.078,5.5,3.17E+07
18256,108.48,37.079,7.5331,3.04E+07
18257,105.32,39.351,8.1186,3.53E+07
18258,103.72,40.445,8.5053,2.98E+07
18259,103.88,38.497,5.5,2.65E+07
18260,101.67,40.489,5.5,3.51E+07
18261,101.43,38.865,7.2518,3.39E+07
18262,103.69,38.448,7.8945,2.72E+07
18263,92.278,47.972,19.5,1.85E+07
18264,92.911,50.323,21.5,1.36E+07
18265,91.927,46.631,21.5,2.59E+07
18266,95.05,48.374,21.5,1.48E+07
18267,94.58,46.234,21.5,1.21E+07
18268,93.683,46.51,19.918,1.37E+07
18269,94.389,49.669,19.611,1.16E+07
18270,92.278,47.972,7.5,9.65E+06
18271,92.911,50.323,5.5,6.02E+06
18272,91.927,46.631,5.5,8.20E+06
18273,95.05,48.374,5.5,5.18E+06
18274,94.58,46.234,5.5,2.17E+06
18275,92.278,47.972,15.5,1.54E+07
18276,92.911,50.323,19.5,1.17E+07
18277,91.927,46.631,19.5,2.39E+07
18278,91.918,46.603,16.762,2.01E+07
18279,92.953,50.441,16.489,1.07E+07
18280,93.683,46.51,17.918,1.15E+07
18281,94.389,49.669,17.611,9.42E+06
18282,94.108,48.125,15.98,1.04E+07
18283,92.278,47.972,11.5,1.25E+07
18284,91.918,46.603,14.762,1.87E+07
18285,91.881,46.498,12.999,1.63E+07
18286,92.953,50.441,14.489,9.35E+06
18287,92.752,49.847,12.09,9.76E+06
18288,94.114,47.895,12.165,8.10E+06
18289,94.108,48.125,13.98,9.45E+06
18290,93.488,46.233,13.316,8.14E+06
18291,92.911,50.323,7.5,7.18E+06
18292,91.927,46.631,7.5,9.32E+06
18293,91.394,45.351,9.5,1.30E+07
18294,91.881,46.498,10.999,1.49E+07
18295,92.752,49.847,10.09,8.25E+06
18296,95.05,48.374,7.5,5.79E+06
18297,94.58,46.234,7.5,2.31E+06
18298,93.509,45.663,9.4898,4.88E+06
18299,94.114,47.895,10.165,7.05E+06
18300,94.389,49.669,9.4019,5.76E+06
18301,93.488,46.233,11.316,7.14E+06
18302,114.41,30.341,21.5,9.33E+06
18303,112.11,29.537,19.5,1.91E+07
18304,110.77,29.075,21.5,2.40E+07
18305,112.19,32.298,21.5,1.84E+07
18306,110.37,31.472,21.5,1.66E+07
18307,111.18,31.279,19.581,1.87E+07
18308,113.12,31.7,19.628,1.44E+07
18309,95.203,54.604,21.5,2.92E+06
18310,93.953,52.661,18.489,5.98E+06
18311,95.858,50.663,21.5,1.11E+07
18312,95.839,52.663,21.5,6.42E+06
18313,95.197,51.959,19.611,6.50E+06
18314,98.674,58.001,21.5,4.65E+06
18315,95.279,54.704,18.489,1.77E+06
18316,97.083,56.697,19.068,1.97E+06
18317,98.403,55.803,21.5,5.04E+06
18318,97.296,54.604,21.5,5.55E+06
18319,96.654,53.901,19.611,4.06E+06
18320,103,60.2,21.5,1.04E+07
18321,98.985,58.218,19.068,5.39E+06
18322,101.16,59.462,18.721,8.48E+06
18323,102.27,57.186,21.5,9.90E+06
18324,100.38,57.218,21.5,6.32E+06
18325,101.21,56.411,19.637,7.45E+06
18326,103.23,57.757,19.771,7.88E+06
18327,107.79,60.999,21.5,1.36E+07
18328,103.43,60.333,18.721,1.08E+07
18329,105.81,60.849,18.7,1.27E+07
18330,104.58,57.944,21.5,1.03E+07
18331,106.56,58.757,21.5,1.12E+07
18332,105.54,58.515,19.771,9.97E+06
18333,107.12,59.44,20.061,1.08E+07
18334,112.6,60.324,21.5,1.36E+07
18335,108.24,60.998,18.7,1.32E+07
18336,110.66,60.777,18.697,1.37E+07
18337,110.83,58.097,21.5,1.20E+07
18338,108.99,58.789,21.5,1.18E+07
18339,109.55,59.471,20.061,1.19E+07
18340,111.27,58.997,19.837,1.12E+07
18341,116.99,58.237,21.5,1.07E+07
18342,113.03,60.19,18.697,1.25E+07
18343,115.27,59.251,18.696,1.19E+07
18344,113.16,57.398,21.5,1.21E+07
18345,115.1,57.48,21.5,1.12E+07
18346,113.6,58.298,19.837,1.09E+07
18347,120.54,54.931,21.5,5.85E+06
18348,117.35,57.982,18.696,9.57E+06
18349,119.21,56.413,18.696,7.59E+06
18350,117.11,56.116,21.5,1.01E+07
18351,118.46,54.866,21.5,8.53E+06
18352,118.44,54.922,20.182,7.52E+06
18353,122.95,50.71,21.5,5.23E+05
18354,120.82,54.579,18.696,4.50E+06
18355,122.12,52.52,18.703,2.03E+06
18356,119.99,50.934,21.5,7.53E+06
18357,119.97,52.962,21.5,6.95E+06
18358,121.29,50.673,19.974,3.08E+06
18359,119.95,53.018,20.182,5.71E+06
18360,123.97,45.963,21.5,5.11E+06
18361,123.1,50.29,18.703,1.43E+06
18362,123.73,47.927,18.674,3.94E+06
18363,120.86,48.666,21.5,5.74E+06
18364,122.01,47.148,21.5,3.88E+06
18365,122.16,48.405,19.974,2.84E+06
18366,123.52,41.128,21.5,7.62E+06
18367,123.88,43.058,18.718,7.69E+06
18368,123.99,45.506,18.674,5.89E+06
18369,121.22,42.718,21.5,2.77E+06
18370,122.16,44.724,21.5,3.75E+06
18371,121.96,41.517,19.582,3.84E+06
18372,121.6,44.026,19.678,3.39E+06
18373,122.31,45.981,19.974,2.71E+06
18374,121.65,36.649,21.5,6.84E+06
18375,123.4,40.671,18.718,8.05E+06
18376,122.45,38.129,18.469,8.20E+06
18377,120.63,40.362,21.5,4.06E+06
18378,120.73,38.304,21.5,4.70E+06
18379,121.37,39.161,19.582,5.29E+06
18380,118.51,32.939,21.5,2.39E+06
18381,121.24,36.016,18.469,6.70E+06
18382,119.53,33.909,19.155,4.33E+06
18383,119.47,36.233,21.5,5.18E+06
18384,118.33,34.997,21.5,5.36E+06
18385,120.11,37.09,19.582,4.53E+06
18386,114.41,30.341,19.5,1.09E+07
18387,116.14,31.227,18.947,3.28E+06
18388,117.72,32.287,19.155,1.60E+06
18389,114.41,33.271,21.5,1.42E+07
18390,116.5,33.402,21.5,6.02E+06
18391,115.35,32.673,19.628,8.74E+06
18392,112.11,29.537,7.5,2.87E+07
18393,114.41,30.341,5.5,1.78E+07
18394,110.77,29.075,5.5,4.37E+07
18395,112.19,32.298,5.5,2.94E+07
18396,110.37,31.472,5.5,3.06E+07
18397,110.82,30.435,7.2312,2.99E+07
18398,112.91,32.163,7.2303,2.36E+07
18399,112.11,29.537,11.5,2.61E+07
18400,114.41,30.341,7.5,1.52E+07
18401,110.77,29.075,7.5,4.07E+07
18402,110.77,29.075,9.9,3.84E+07
18403,114.45,30.36,10.837,1.47E+07
18404,110.82,30.435,9.2312,2.65E+07
18405,112.91,32.163,9.2303,1.98E+07
18406,112.3,31.299,11.542,2.15E+07
18407,112.11,29.537,15.5,2.34E+07
18408,109.5,28.427,13.5,3.61E+07
18409,110.77,29.075,11.9,3.81E+07
18410,110.77,29.075,15.1,3.22E+07
18411,114.45,30.36,12.837,1.46E+07
18412,113.96,30.151,14.947,1.55E+07
18413,110.82,30.435,11.231,2.61E+07
18414,112.3,31.299,13.542,2.12E+07
18415,110.18,30.175,14.014,2.33E+07
18416,110.77,29.075,19.5,2.53E+07
18417,110.77,29.075,17.1,2.99E+07
18418,113.96,30.151,16.947,1.30E+07
18419,111.18,31.279,17.581,1.90E+07
18420,113.12,31.7,17.628,1.48E+07
18421,112.3,31.299,15.542,1.96E+07
18422,110.18,30.175,16.014,2.15E+07
18423,118.51,32.939,5.5,1.00E+06
18424,116.6,31.509,8.837,3.72E+06
18425,117.88,32.414,7.3431,1.22E+06
18426,114.41,33.271,5.5,2.05E+07
18427,116.5,33.402,5.5,8.35E+06
18428,115.13,33.136,7.2303,1.39E+07
18429,121.65,36.649,5.5,6.98E+06
18430,119.67,34.059,7.3431,3.87E+06
18431,120.86,35.478,7.7238,6.05E+06
18432,119.47,36.233,5.5,4.21E+06
18433,118.33,34.997,5.5,6.00E+06
18434,123.52,41.128,5.5,9.06E+06
18435,122.15,37.54,7.7238,8.15E+06
18436,123.02,39.499,7.886,9.07E+06
18437,120.63,40.362,5.5,5.62E+06
18438,120.73,38.304,5.5,4.33E+06
18439,121.56,40.071,7.2941,5.63E+06
18440,123.97,45.963,5.5,7.41E+06
18441,123.69,41.843,7.886,8.90E+06
18442,123.97,43.98,8.016,8.51E+06
18443,121.22,42.718,5.5,5.75E+06
18444,122.16,44.724,5.5,6.62E+06
18445,122.15,42.427,7.2941,5.65E+06
18446,122.95,50.71,5.5,3.00E+06
18447,123.94,46.415,8.016,6.69E+06
18448,123.55,48.758,8.0483,4.97E+06
18449,120.86,48.666,5.5,7.45E+06
18450,122.01,47.148,5.5,6.78E+06
18451,121.83,48.982,7.0078,4.75E+06
18452,120.54,54.931,5.5,2.83E+06
18453,122.8,51.075,8.0483,2.16E+06
18454,121.7,53.263,8.0342,1.67E+06
18455,119.99,50.934,5.5,7.75E+06
18456,119.97,52.962,5.5,4.79E+06
18457,120.96,51.25,7.0078,4.52E+06
18458,116.99,58.237,5.5,7.55E+06
18459,120.29,55.246,8.0342,3.83E+06
18460,118.59,56.996,8.0293,6.45E+06
18461,117.11,56.116,5.5,6.21E+06
18462,118.46,54.866,5.5,5.13E+06
18463,117.4,55.225,6.9185,6.44E+06
18464,112.6,60.324,5.5,1.08E+07
18465,116.65,58.463,8.0293,8.52E+06
18466,114.5,59.62,8.0286,1.06E+07
18467,113.16,57.398,5.5,7.78E+06
18468,115.1,57.48,5.5,7.33E+06
18469,112.98,57.718,7.0101,7.61E+06
18470,107.79,60.999,5.5,1.15E+07
18471,112.21,60.437,8.0286,1.14E+07
18472,109.82,60.897,8.0285,1.25E+07
18473,110.83,58.097,5.5,7.95E+06
18474,108.99,58.789,5.5,8.43E+06
18475,110.65,58.417,7.0101,8.53E+06
18476,103,60.2,5.5,9.11E+06
18477,107.38,60.988,8.0285,1.17E+07
18478,104.96,60.709,8.0288,1.12E+07
18479,104.58,57.944,5.5,8.88E+06
18480,106.56,58.757,5.5,8.90E+06
18481,104.56,59.122,7.0038,8.80E+06
18482,98.674,58.001,5.5,4.52E+06
18483,102.61,60.066,8.0288,8.82E+06
18484,100.35,59.054,7.9525,7.24E+06
18485,102.27,57.186,5.5,9.38E+06
18486,100.38,57.218,5.5,6.97E+06
18487,102.25,58.364,7.0038,7.65E+06
18488,95.203,54.604,5.5,9.56E+05
18489,98.308,57.73,7.9525,4.30E+06
18490,96.394,56.013,8.2713,1.95E+06
18491,98.403,55.803,5.5,6.07E+06
18492,97.296,54.604,5.5,5.06E+06
18493,98.659,54.794,6.9201,7.83E+06
18494,93.664,52.105,8.0898,4.59E+06
18495,94.857,54.124,8.2713,2.24E+06
18496,95.858,50.663,5.5,5.53E+06
18497,95.839,52.663,5.5,4.23E+06
18498,95.197,51.959,7.4019,4.04E+06
18499,108.34,27.606,5.5,5.90E+07
18500,107.31,26.629,7.5,6.09E+07
18501,105.96,25.159,5.5,6.64E+07
18502,106.03,28.825,5.5,4.52E+07
18503,105.35,26.847,5.5,5.54E+07
18504,105.2,26.794,7.0357,5.30E+07
18505,108.34,27.606,7.5,5.70E+07
18506,109.5,28.427,7.9,5.37E+07
18507,107.12,29.724,5.5,4.04E+07
18508,109.07,30.917,5.5,4.31E+07
18509,109.52,29.88,7.2312,4.26E+07
18510,108.34,27.606,21.5,3.22E+07
18511,107.31,26.629,19.5,3.92E+07
18512,105.96,25.159,21.5,3.58E+07
18513,106.03,28.825,21.5,2.20E+07
18514,105.35,26.847,21.5,2.74E+07
18515,105.33,27.264,19.74,2.89E+07
18516,106.96,28.541,20.033,2.64E+07
18517,108.34,27.606,19.5,3.70E+07
18518,109.5,28.427,19.1,3.48E+07
18519,107.12,29.724,21.5,1.85E+07
18520,109.07,30.917,21.5,2.27E+07
18521,108.06,29.44,20.033,2.36E+07
18522,109.87,30.724,19.581,2.50E+07
18523,107.31,26.629,15.5,4.70E+07
18524,105.96,25.159,19.5,4.05E+07
18525,108.34,27.606,17.1,4.12E+07
18526,106.09,25.294,16.833,4.43E+07
18527,105.33,27.264,17.74,3.37E+07
18528,106.96,28.541,18.033,3.12E+07
18529,107.78,28.721,16.014,3.48E+07
18530,107.31,26.629,11.5,5.44E+07
18531,108.34,27.606,11.9,5.01E+07
18532,108.34,27.606,15.1,4.41E+07
18533,105.65,24.814,12.049,5.24E+07
18534,106.09,25.294,14.833,4.71E+07
18535,105.2,26.794,11.036,4.65E+07
18536,105.33,27.264,15.74,3.64E+07
18537,106.48,28.394,12.232,3.84E+07
18538,107.78,28.721,14.014,3.76E+07
18539,104.45,26.089,13.451,4.30E+07
18540,105.44,29.229,13.859,3.23E+07
18541,105.96,25.159,7.5,6.43E+07
18542,108.34,27.606,9.9,5.46E+07
18543,106.03,28.825,7.5,4.30E+07
18544,105.65,24.814,10.049,5.69E+07
18545,105.2,26.794,9.0357,5.10E+07
18546,106.48,28.394,10.232,4.29E+07
18547,108.42,28.981,9.2312,4.49E+07
18548,85.681,38.551,21.5,5.09E+07
18549,85.046,35.096,21.5,5.07E+07
18550,84.857,37.651,19.778,4.85E+07
18551,83.409,36.07,20.208,5.62E+07
18552,86.674,36.078,21.5,4.63E+07
18553,85.62,35.484,19.362,4.28E+07
18554,88.444,41.565,21.5,4.21E+07
18555,90.689,44.157,21.5,3.47E+07
18556,89.825,43.073,19.5,3.49E+07
18557,90.664,41.605,21.5,3.10E+07
18558,88.444,41.565,19.5,3.85E+07
18559,86.238,39.159,19.778,4.29E+07
18560,89.283,40.097,21.5,3.48E+07
18561,88.055,37.585,21.5,4.09E+07
18562,88.133,39.247,19.539,3.64E+07
18563,96.104,23.012,21.5,2.42E+07
18564,97.034,24.56,21.5,2.35E+07
18565,99.302,23.475,21.5,2.73E+07
18566,99.067,20.459,19.618,3.80E+07
18567,96.112,20.016,20.941,2.96E+07
18568,97.677,21.879,18.838,3.20E+07
18569,99.313,22.768,19.841,3.00E+07
18570,98.865,20.919,21.046,3.18E+07
18571,96.682,23.235,19.894,2.55E+07
18572,96.156,21.571,21.19,2.56E+07
18573,97.328,20.143,21.487,2.91E+07
18574,92.617,25.293,21.5,2.41E+07
18575,93.336,21.565,22,2.19E+07
18576,91.536,22.878,22,2.17E+07
18577,95.202,25.552,21.5,2.29E+07
18578,94.849,24.226,19.894,2.30E+07
18579,92.042,24.377,20.599,2.06E+07
18580,94.324,22.563,21.19,2.24E+07
18581,93.639,25.559,20.463,2.24E+07
18582,89.557,28.122,21.5,3.20E+07
18583,89.893,24.16,22,2.53E+07
18584,93.559,26.834,21.5,2.48E+07
18585,91.736,28.727,21.5,2.85E+07
18586,90.599,27.919,19.805,2.56E+07
18587,90.4,25.659,20.599,2.43E+07
18588,91.997,26.842,20.463,2.53E+07
18589,87.01,31.42,21.5,4.09E+07
18590,85.985,29.03,22,3.72E+07
18591,90.33,30.264,21.5,3.26E+07
18592,88.631,32.415,21.5,3.71E+07
18593,86.121,30.325,20.594,3.92E+07
18594,87.178,28.077,20.057,3.24E+07
18595,89.192,29.456,19.805,2.94E+07
18596,88.993,27.196,20.599,2.74E+07
18597,87.657,29.961,20.089,3.34E+07
18598,88.683,30.853,20.61,3.37E+07
18599,84.234,34.157,20.208,4.93E+07
18600,87.499,34.165,21.5,4.10E+07
18601,84.99,32.075,20.594,4.37E+07
18602,86.445,33.571,19.362,3.73E+07
18603,86.525,31.711,20.089,3.70E+07
18604,87.551,32.602,20.61,3.71E+07
18605,104.01,25.378,21.5,2.92E+07
18606,102.62,24.271,21.5,3.14E+07
18607,104.74,23.824,18.833,4.08E+07
18608,102.63,23.565,19.841,3.53E+07
18609,103.99,25.795,19.74,3.07E+07
18610,90.689,44.157,19.5,3.11E+07
18611,91.381,45.325,18.762,2.76E+07
18612,93.668,42.783,21.5,1.63E+07
18613,91.448,42.744,21.5,2.66E+07
18614,94.138,44.923,21.5,1.81E+07
18615,93.241,45.199,19.918,1.97E+07
18616,90.689,44.157,5.5,8.06E+06
18617,88.444,41.565,5.5,1.11E+07
18618,89.825,43.073,7.5,1.23E+07
18619,90.664,41.605,5.5,6.66E+06
18620,90.689,44.157,7.5,1.17E+07
18621,93.668,42.783,5.5,1.05E+07
18622,91.448,42.744,5.5,4.79E+06
18623,94.138,44.923,5.5,2.75E+06
18624,93.067,44.352,7.4898,3.89E+06
18625,104.01,25.378,5.5,5.92E+07
18626,102.62,24.271,5.5,6.49E+07
18627,104.3,23.345,8.0487,6.26E+07
18628,102.34,23.426,7.3333,6.00E+07
18629,103.85,25.324,7.0357,5.70E+07
18630,87.01,31.42,5.5,2.02E+07
18631,87.44,34.917,5.5,1.60E+07
18632,87.856,33.179,5.5,1.89E+07
18633,86.164,33.28,6.9438,1.67E+07
18634,85.015,34.409,5.3747,1.52E+07
18635,85.414,31.804,6.3165,1.63E+07
18636,89.557,28.122,5.5,3.09E+07
18637,90.331,30.171,5.5,2.83E+07
18638,88.988,31.429,5.5,2.39E+07
18639,86.924,28.593,5,2.32E+07
18640,87.968,28.001,6.6,2.41E+07
18641,87.295,31.53,6.9438,1.87E+07
18642,88.919,29.845,7.1552,2.32E+07
18643,86.546,30.055,6.3165,1.88E+07
18644,92.617,25.293,5.5,4.39E+07
18645,93.547,26.803,5.5,4.15E+07
18646,91.737,28.634,5.5,3.45E+07
18647,90.073,25.176,5,3.54E+07
18648,89.375,26.464,6.6,3.01E+07
18649,91.031,24.671,6.4261,3.85E+07
18650,93.132,28.094,7.3048,3.38E+07
18651,90.326,28.307,7.1552,2.82E+07
18652,91.615,26.401,7.7408,3.26E+07
18653,96.104,23.012,5.5,5.86E+07
18654,95.19,25.521,5.5,4.80E+07
18655,93.374,21.8,5,5.02E+07
18656,92.674,23.389,6.4261,4.51E+07
18657,95.047,21.962,6.5925,5.41E+07
18658,94.91,24.007,7.0265,4.56E+07
18659,93.258,25.119,7.7408,3.85E+07
18660,97.022,24.53,5.5,5.53E+07
18661,99.302,23.475,5.5,6.23E+07
18662,99.249,20.657,7.8333,6.56E+07
18663,96.88,20.971,6.5925,6.22E+07
18664,99.024,22.63,7.3333,5.78E+07
18665,96.742,23.015,7.0265,5.33E+07
18666,88.444,41.565,7.5,1.47E+07
18667,86.105,39.013,8.0556,2.06E+07
18668,89.283,40.097,5.5,8.79E+06
18669,87.996,38.337,5.5,1.15E+07
18670,88.766,38.781,7.0185,1.19E+07
18671,89.825,43.073,11.5,2.01E+07
18672,90.608,44.043,10.999,1.74E+07
18673,87.486,40.52,10.056,2.19E+07
18674,88.404,41.522,11.867,2.30E+07
18675,90.664,41.605,7.5,8.97E+06
18676,90.147,40.288,9.0185,1.23E+07
18677,92.282,43.213,9.4898,8.59E+06
18678,91.065,42.141,10.802,1.26E+07
18679,89.825,43.073,15.5,2.77E+07
18680,90.672,44.133,14.762,2.34E+07
18681,90.608,44.043,12.999,2.13E+07
18682,88.404,41.522,13.867,2.69E+07
18683,89.515,40.754,15.539,2.55E+07
18684,91.537,42.355,14.826,1.70E+07
18685,91.065,42.141,12.802,1.63E+07
18686,90.672,44.133,16.762,2.71E+07
18687,88.404,41.522,15.867,3.06E+07
18688,87.62,40.666,17.778,3.57E+07
18689,90.664,41.605,19.5,2.73E+07
18690,89.515,40.754,17.539,2.92E+07
18691,91.537,42.355,16.826,2.05E+07
18692,92.457,44.06,17.918,2.03E+07
18693,13,32.793,65.392,1.01E+09
18694,13,32.793,60.608,1.09E+09
18695,10.833,32.317,63,9.69E+08
18696,13,31.158,65.239,8.51E+08
18697,13,31.171,60.727,9.46E+08
18698,13,30.505,62.982,9.24E+08
18699,11.178,31.369,65.385,8.62E+08
18700,11.792,29.964,64.655,9.09E+08
18701,13,36.175,68.774,6.02E+08
18702,10.833,32.793,65.392,7.43E+08
18703,9.5251,33.951,67.213,6.97E+08
18704,10.583,35.552,68.475,6.22E+08
18705,13,34.284,69.572,6.25E+08
18706,13,32.074,67.448,6.92E+08
18707,10.827,33.425,69.217,6.01E+08
18708,11.178,32.284,67.594,7.08E+08
18709,11.724,31.874,68.95,6.18E+08
18710,13,40.959,68.774,2.96E+08
18711,10.583,37.877,69.212,4.42E+08
18712,10.463,40.268,69.014,3.16E+08
18713,13,36.494,70.487,3.42E+08
18714,13,40.585,70.507,3.47E+08
18715,13,38.401,71.411,3.22E+08
18716,11.25,38.945,70.464,3.44E+08
18717,13,44.341,65.392,1.04E+08
18718,10.254,44.042,66.015,9.64E+07
18719,10.463,42.44,67.906,1.65E+08
18720,13,42.795,69.592,1.40E+08
18721,13,45.036,67.513,1.14E+08
18722,11.578,44.276,68.779,1.27E+08
18723,13,44.341,60.608,1.11E+08
18724,10.254,44.779,63.69,5.08E+07
18725,10.254,44.57,61.26,5.91E+07
18726,13,45.978,60.768,4.81E+07
18727,13,45.952,65.304,5.84E+07
18728,13,46.629,63.038,4.17E+07
18729,11.177,46.21,61.778,4.62E+07
18730,11.17,46.724,64.068,4.70E+07
18731,13,40.959,57.226,3.32E+08
18732,10.254,43.447,59.096,1.23E+08
18733,10.254,41.582,57.525,1.85E+08
18734,13,42.838,56.437,1.32E+08
18735,13,45.063,58.558,1.28E+08
18736,11.363,44.067,57.011,1.24E+08
18737,11.281,41.91,56.085,1.10E+08
18738,13,36.175,57.226,7.17E+08
18739,10.254,39.257,56.788,3.83E+08
18740,10.487,36.886,56.98,4.84E+08
18741,13,40.628,55.522,3.66E+08
18742,13,36.525,55.494,4.29E+08
18743,13,38.449,54.588,3.68E+08
18744,11.473,37.656,55.749,4.11E+08
18745,11.281,39.701,55.17,3.52E+08
18746,10.833,32.793,60.608,8.29E+08
18747,10.487,34.71,58.082,7.52E+08
18748,13,34.315,56.409,7.03E+08
18749,13,32.086,58.517,8.57E+08
18750,11.473,35.446,56.665,6.54E+08
18751,10.635,32.583,58.347,8.12E+08
18752,11.556,33.061,56.702,7.45E+08
18753,6.5,32.317,63,6.04E+08
18754,7.3585,32.69,65.126,5.76E+08
18755,8.3206,33.122,59.932,5.59E+08
18756,6.4615,32.527,61.394,5.54E+08
18757,10.833,31.171,60.727,6.68E+08
18758,10.833,30.505,62.982,6.39E+08
18759,8.1758,29.158,64.552,5.63E+08
18760,7.2094,30.508,61.965,6.20E+08
18761,9.0019,29.45,62.228,6.73E+08
18762,8.4679,31.667,60.557,6.47E+08
18763,6.7889,31.341,64.843,5.51E+08
18764,9.0112,31.369,65.385,5.98E+08
18765,9.6253,29.964,64.655,6.34E+08
18766,2.1667,32.317,63,4.37E+08
18767,5.1918,32.69,65.126,4.54E+08
18768,2.7773,32.678,65.094,3.65E+08
18769,4.2948,32.527,61.394,4.43E+08
18770,5.0427,30.508,61.965,5.01E+08
18771,2.8033,30.955,61.338,4.12E+08
18772,4.6222,31.341,64.843,4.33E+08
18773,3.9354,29.315,63.511,4.21E+08
18774,-2.1667,32.317,63,4.17E+08
18775,0.61063,32.678,65.094,3.08E+08
18776,-1.556,32.678,65.094,3.07E+08
18777,2.1282,32.527,61.394,3.89E+08
18778,-0.61063,32.678,60.906,3.40E+08
18779,-2.0962,30.886,61.5,3.88E+08
18780,-0.37537,31.127,65.127,3.19E+08
18781,0.63659,30.955,61.338,3.71E+08
18782,2.4555,31.341,64.843,3.68E+08
18783,-1.0833,30.401,63.018,3.67E+08
18784,1.7687,29.315,63.511,3.62E+08
18785,-6.5,32.317,63,5.66E+08
18786,-3.7227,32.678,65.094,3.41E+08
18787,-5.3038,32.554,64.704,4.22E+08
18788,-2.7773,32.678,60.906,3.79E+08
18789,-4.944,32.678,60.906,4.60E+08
18790,-4.2628,30.886,61.5,4.43E+08
18791,-5.0573,30.615,64.22,4.27E+08
18792,-2.542,31.127,65.127,3.38E+08
18793,-3.25,30.401,63.018,4.03E+08
18794,-7.4705,32.554,64.704,5.38E+08
18795,-9.1613,32.757,65.303,5.69E+08
18796,-7.1106,32.678,60.906,5.79E+08
18797,-10.833,31.069,61.051,6.57E+08
18798,-10.833,30.805,64.392,5.99E+08
18799,-6.4295,30.886,61.5,5.58E+08
18800,-7.2239,30.615,64.22,5.43E+08
18801,-8.8504,30.202,61.015,6.40E+08
18802,-9.0282,30.723,65.482,5.55E+08
18803,-9.2816,30.269,62.935,6.99E+08
18804,13,40.226,120.39,5.39E+06
18805,13,40.226,115.61,2.79E+07
18806,10.833,39.75,118,8.48E+06
18807,13,38.395,116.3,1.31E+07
18808,13,38.344,119.61,5.35E+06
18809,13,43.608,123.77,1.77E+06
18810,10.833,40.226,120.39,3.86E+06
18811,9.5251,41.384,122.21,2.88E+06
18812,10.583,42.985,123.47,2.11E+06
18813,13,39.26,121.82,2.18E+06
18814,13,41.547,124.49,1.53E+06
18815,10.673,40.471,123.61,1.98E+06
18816,13,48.392,123.77,2.52E+06
18817,10.583,45.31,124.21,2.85E+06
18818,10.455,47.714,124.01,3.05E+06
18819,13,43.756,125.41,1.92E+06
18820,13,48.376,125.36,1.77E+06
18821,13,46.071,126.06,2.04E+06
18822,11.272,47.01,125.66,2.05E+06
18823,11.534,45.158,126.29,1.90E+06
18824,13,51.774,120.39,4.86E+06
18825,10.455,49.883,122.9,4.18E+06
18826,10.254,51.475,121.01,6.56E+06
18827,13,52.554,122.27,3.11E+06
18828,13,50.586,124.44,3.05E+06
18829,11.401,52.252,123.24,3.24E+06
18830,13,51.774,115.61,1.88E+07
18831,10.254,52.212,118.69,9.35E+06
18832,10.254,52.003,116.26,1.81E+07
18833,13,53.477,115.97,6.85E+06
18834,13,53.469,120.06,5.67E+06
18835,13,54.198,117.7,6.42E+06
18836,11.449,52.899,116.46,1.14E+07
18837,11.495,54.149,117.76,8.02E+06
18838,13,48.392,112.23,5.18E+07
18839,10.254,49.015,112.53,4.63E+07
18840,10.254,50.88,114.1,2.99E+07
18841,13,50.543,111.64,3.12E+07
18842,13,52.561,113.76,2.13E+07
18843,11.422,51.547,111.85,2.83E+07
18844,11.449,51.984,114.25,2.42E+07
18845,13,43.608,112.23,5.86E+07
18846,10.254,46.69,111.79,6.99E+07
18847,10.487,44.319,111.98,6.35E+07
18848,13,48.333,110.72,6.17E+07
18849,13,43.624,110.64,6.80E+07
18850,13,45.806,109.94,6.69E+07
18851,11.153,47.316,109.68,6.30E+07
18852,11.357,44.611,110.08,6.71E+07
18853,10.833,40.226,115.61,2.45E+07
18854,10.487,42.143,113.08,4.72E+07
18855,13,39.31,114.09,3.26E+07
18856,13,41.414,111.56,4.53E+07
18857,11.237,39.658,112.83,3.89E+07
18858,6.5,39.75,118,6.39E+06
18859,7.3585,40.123,120.13,4.17E+06
18860,8.3206,40.555,114.93,2.39E+07
18861,6.4615,39.96,116.39,1.01E+07
18862,10.833,38.395,116.3,9.39E+06
18863,10.833,38.344,119.61,4.59E+06
18864,7.2207,37.792,117.01,6.29E+06
18865,9.0702,38.742,115.04,1.67E+07
18866,7.6319,38.245,119.43,5.60E+06
18867,9.561,37.524,117.75,5.72E+06
18868,8.5061,39.556,121.4,3.95E+06
18869,2.1667,39.75,118,5.45E+06
18870,5.1918,40.123,120.13,3.44E+06
18871,2.7773,40.111,120.09,3.76E+06
18872,4.2948,39.96,116.39,9.05E+06
18873,2.917,38.659,116.46,5.23E+06
18874,5.054,37.792,117.01,5.00E+06
18875,3.0924,38.22,119.28,4.70E+06
18876,5.4652,38.245,119.43,4.48E+06
18877,-2.1667,39.75,118,5.97E+06
18878,0.61063,40.111,120.09,4.18E+06
18879,-1.556,40.111,120.09,4.19E+06
18880,2.1282,39.96,116.39,8.60E+06
18881,-0.61063,40.111,115.91,4.87E+06
18882,0.75035,38.659,116.46,5.01E+06
18883,0.92577,38.22,119.28,5.06E+06
18884,-1.3018,38.011,116.76,5.43E+06
18885,-1.419,38.419,119.31,4.80E+06
18886,-6.5,39.75,118,6.44E+06
18887,-3.7227,40.111,120.09,4.52E+06
18888,-6.9804,40.188,120.3,4.57E+06
18889,-2.7773,40.111,115.91,4.56E+06
18890,-4.944,40.111,115.91,3.81E+06
18891,-5.5362,38.208,116.66,6.64E+06
18892,-5.6738,38.396,119.74,4.49E+06
18893,-3.4685,38.011,116.76,5.53E+06
18894,-3.5856,38.419,119.31,5.02E+06
18895,-9.1471,40.188,120.3,5.01E+06
18896,-7.1106,40.111,115.91,3.89E+06
18897,-10.833,38.594,115.75,1.18E+07
18898,-7.7029,38.208,116.66,6.92E+06
18899,-9.6125,37.519,118.03,5.52E+06
18900,-7.8404,38.396,119.74,4.79E+06
18901,-9.8054,37.863,119.51,4.52E+06
18902,13,59.441,116.73,5.74E+06
18903,10.325,59.306,115.72,7.79E+06
18904,13,56.845,114.13,7.49E+06
18905,13,57.567,115.85,5.12E+06
18906,11.495,57.518,115.91,6.90E+06
18907,13,59.006,121.62,3.61E+06
18908,10.325,59.499,118.17,6.44E+06
18909,10.255,59.173,120.95,4.54E+06
18910,13,57.068,120.66,2.78E+06
18911,13,57.797,118.3,4.54E+06
18912,11.495,57.748,118.35,6.41E+06
18913,13,56.855,126.03,2.18E+06
18914,10.255,58.418,123.3,3.74E+06
18915,10.604,57.388,125.25,2.76E+06
18916,13,56.411,123.02,2.64E+06
18917,11.401,56.109,123.99,2.65E+06
18918,13,53.273,129.37,1.33E+06
18919,10.604,55.882,127.2,2.19E+06
18920,10.625,54.128,128.78,1.64E+06
18921,13,54.953,124.99,2.32E+06
18922,13,52.985,127.16,1.36E+06
18923,11.401,54.651,125.96,2.38E+06
18924,13,48.731,131.22,7.77E+05
18925,10.625,52.035,130.08,1.32E+06
18926,10.804,49.925,130.92,9.71E+05
18927,13,50.92,128.48,1.37E+06
18928,13,48.614,129.19,7.38E+05
18929,11.272,49.553,128.79,1.07E+06
18930,13,43.829,131.32,2.98E+05
18931,10.804,47.514,131.41,6.99E+05
18932,10.548,45.171,131.47,4.03E+05
18933,13,46.213,129.69,7.85E+05
18934,11.534,45.3,129.92,5.32E+05
18935,13,39.213,129.67,2.95E+05
18936,10.548,42.738,131.1,1.93E+05
18937,10.415,40.128,130.16,3.08E+05
18938,13,41.479,128.64,6.91E+05
18939,13,43.794,129.29,6.61E+05
18940,11.534,42.88,129.52,4.97E+05
18941,13,35.492,126.48,1.10E+06
18942,10.415,38.018,128.89,6.33E+05
18943,10.563,36.017,127.09,1.25E+06
18944,13,37.073,124.73,1.60E+06
18945,13,39.359,127.4,6.84E+05
18946,10.673,38.284,126.52,1.26E+06
18947,10.563,34.532,125.12,1.82E+06
18948,13,35.533,122.82,1.85E+06
18949,3.9763,12.904,74.296,2.18E+08
18950,4,9.002,71.98,2.47E+08
18951,4,8.977,72.571,1.88E+08
18952,4.1142,10.808,73.78,1.74E+08
18953,4.1444,11.523,74.134,1.80E+08
18954,3.8613,11.889,73.087,2.80E+08
18955,5.5276,10.482,72.771,2.07E+08
18956,5.4204,11.994,73.611,2.27E+08
18957,0,20.938,81.151,8.35E+07
18958,2.9929,20.432,80.564,1.26E+08
18959,2.5,20.455,80.451,1.33E+08
18960,0,20.456,80.452,1.06E+08
18961,2.6223,21.467,80.284,1.18E+08
18962,1.2252,22.039,80.181,9.29E+07
18963,3.7724,16.463,76.775,1.96E+08
18964,3.3778,16.621,76.331,2.16E+08
18965,3.3525,14.959,74.746,2.69E+08
18966,4.1579,13.407,75.147,1.78E+08
18967,3.7252,13.771,74.224,2.79E+08
18968,5.0008,15.767,75.066,2.15E+08
18969,5.3715,13.854,74.729,2.30E+08
18970,3.0869,18.208,77.793,2.00E+08
18971,3.4251,18.979,79.027,1.59E+08
18972,3.0862,19.125,78.887,1.66E+08
18973,4.84,17.455,76.421,2.04E+08
18974,3.9065,19.314,77.925,1.70E+08
18975,2.5,0.84324,67.088,4.22E+08
18976,3.074,-1.4081,66.729,3.56E+08
18977,0,-1.3883,66.617,3.55E+08
18978,2.5,-3.8207,66.188,3.26E+08
18979,0,-3.8207,66.188,3.05E+08
18980,4.1074,-2.9999,65.467,2.48E+08
18981,3.7283,0.80257,65.746,3.08E+08
18982,4.3345,-0.79144,64.827,2.67E+08
18983,1.3191,0.1354,65.105,3.39E+08
18984,1.7736,-2.5172,64.548,2.99E+08
18985,2.5,16.58,75.89,2.82E+08
18986,2.5,19.075,78.635,1.89E+08
18987,1.0088,18.22,77.625,2.04E+08
18988,4.2997,17.478,76.101,2.22E+08
18989,1.8749,18.79,75.942,2.03E+08
18990,3.3663,19.337,77.604,1.88E+08
18991,0.8993,19.518,77.303,1.73E+08
18992,2.5,13.126,72.914,4.06E+08
18993,0,14.903,74.344,3.27E+08
18994,3.0171,13.872,73.608,3.40E+08
18995,1.0088,16.656,75.966,2.65E+08
18996,1.18,13.305,73.049,3.72E+08
18997,0.22592,15.178,72.152,2.99E+08
18998,4.2997,15.855,74.5,2.75E+08
18999,1.8749,17.167,74.342,2.65E+08
19000,2.3883,14.781,72.227,3.14E+08
19001,3.2876,16.501,72.453,2.85E+08
19002,2.5,9.3055,70.427,4.71E+08
19003,3.0171,12.048,72.249,4.01E+08
19004,3.0987,8.1731,69.961,4.41E+08
19005,1.18,11.445,71.729,4.38E+08
19006,2.3883,12.959,70.859,3.80E+08
19007,1.1533,11.063,69.71,4.04E+08
19008,3.4953,11.357,69.825,3.79E+08
19009,2.5,5.1866,68.473,4.71E+08
19010,0,7.2788,69.381,4.69E+08
19011,3.1074,6.1241,68.999,4.41E+08
19012,1.18,9.5008,70.537,4.40E+08
19013,1.0842,5.591,68.636,4.50E+08
19014,-1.21E-02,6.6984,67.668,3.97E+08
19015,4.6346,7.9075,67.072,3.46E+08
19016,1.1533,9.0739,68.597,4.07E+08
19017,2.3666,7.1831,66.867,3.90E+08
19018,3.4953,9.3676,68.713,3.80E+08
19019,3.1045,0.82717,67.215,4.01E+08
19020,0,0.84324,67.088,4.05E+08
19021,3.1053,3.994,68.163,4.39E+08
19022,1.0842,3.4525,67.843,4.51E+08
19023,3.7283,3.0158,66.291,3.58E+08
19024,1.3191,2.3486,65.65,3.88E+08
19025,2.3666,5.0628,66.031,3.89E+08
19026,3.8858,-1.5491,67.529,2.92E+08
19027,4,0.59449,68.572,2.59E+08
19028,4,-4.055,67.67,2.11E+08
19029,4,-1.3361,69.475,1.67E+08
19030,4,-3.1376,68.959,1.74E+08
19031,5.0925,-0.14046,68.898,1.89E+08
19032,5.5569,-2.2988,68.449,1.58E+08
19033,3.9158,0.6784,68.082,3.10E+08
19034,3.074,-3.8405,66.3,3.11E+08
19035,3.8858,-3.9553,67.104,2.60E+08
19036,3.6628,1.7184,67.889,3.94E+08
19037,4.6377,-3.038,65.684,2.37E+08
19038,4.2586,0.76443,65.962,2.92E+08
19039,4.8728,-4.84E-02,68.376,2.52E+08
19040,5.3372,-2.2068,67.927,2.23E+08
19041,4.8648,-0.82958,65.044,2.50E+08
19042,4,4.8833,69.967,2.72E+08
19043,4,2.7411,70.306,1.91E+08
19044,4,0.8875,70.031,1.74E+08
19045,3.9004,3.8447,68.997,3.38E+08
19046,4.4783,2.8959,67.041,2.30E+08
19047,5.0925,2.0831,69.454,2.03E+08
19048,6.1725,4.3853,69.586,2.07E+08
19049,4,4.7976,71.137,1.93E+08
19050,4,6.9093,71.454,2.16E+08
19051,3.9163,9.8457,71.906,2.97E+08
19052,3.9056,5.9039,69.828,3.36E+08
19053,6.1725,6.4418,70.417,2.08E+08
19054,5.5276,8.4348,71.585,2.32E+08
19055,-2.5,20.456,80.452,1.00E+08
19056,-2.8222,20.727,80.902,8.76E+07
19057,-3.055,21.262,80.555,6.55E+07
19058,-1.2748,22.039,80.181,7.17E+07
19059,-2.5,0.84324,67.088,4.00E+08
19060,-3.074,-1.4081,66.729,3.25E+08
19061,-2.5,-3.8207,66.188,3.03E+08
19062,-1.4158,1.2658,67.195,3.91E+08
19063,-1.1809,0.1354,65.105,3.26E+08
19064,-4.342,0.58141,66.482,2.67E+08
19065,-0.72643,-2.5172,64.548,2.87E+08
19066,-3.0369,-1.8519,64.926,2.79E+08
19067,-2.5,5.1866,68.473,4.62E+08
19068,-3.1045,0.82717,67.215,3.71E+08
19069,-3.1572,4.4663,68.36,3.98E+08
19070,-1.4158,3.4525,67.843,4.37E+08
19071,-2.5121,4.578,66.831,3.84E+08
19072,-1.1809,2.3486,65.65,3.73E+08
19073,-4.342,2.7946,67.028,3.14E+08
19074,-2.5,9.3055,70.427,4.57E+08
19075,-3.1431,6.5832,69.219,4.09E+08
19076,-1.32,9.5008,70.537,4.41E+08
19077,-1.4158,5.591,68.636,4.55E+08
19078,-2.5121,6.6984,67.668,4.01E+08
19079,-3.5524,8.419,68.443,3.67E+08
19080,-1.3467,9.0739,68.597,4.09E+08
19081,-2.5,13.126,72.914,3.85E+08
19082,-3.096,11.814,72.126,3.95E+08
19083,-3.1431,8.6223,70.219,3.90E+08
19084,-1.32,11.445,71.729,4.19E+08
19085,-3.5524,10.408,69.555,3.44E+08
19086,-2.2741,13.355,70.783,3.50E+08
19087,-1.3467,11.063,69.71,3.86E+08
19088,-3.2537,11.903,68.962,3.43E+08
19089,-4.0401,12.435,70.813,3.13E+08
19090,-2.5,16.58,75.89,2.75E+08
19091,-3.3526,14.959,74.746,2.75E+08
19092,-3.096,13.646,73.469,3.47E+08
19093,-1.4912,16.656,75.966,2.56E+08
19094,-1.32,13.305,73.049,3.71E+08
19095,-2.2741,15.178,72.152,2.99E+08
19096,-3.3993,16.675,74.548,2.39E+08
19097,-4.7743,14.274,73.8,2.36E+08
19098,-0.62515,17.167,74.342,2.57E+08
19099,-4.0401,14.257,72.182,2.62E+08
19100,-3.0851,18.209,77.793,1.91E+08
19101,-3.3778,16.621,76.331,2.11E+08
19102,-2.5,19.076,78.636,1.71E+08
19103,-1.4912,18.22,77.625,2.00E+08
19104,-3.2547,19.331,77.543,1.48E+08
19105,-3.3993,18.298,76.148,1.76E+08
19106,-0.62515,18.79,75.942,1.97E+08
19107,-1.6007,19.518,77.303,1.69E+08
19108,-3.8858,-1.5491,67.529,2.48E+08
19109,-4,0.59449,68.572,1.99E+08
19110,-4,-3.1376,68.959,1.29E+08
19111,-4,-1.3361,69.475,1.23E+08
19112,-4,-4.055,67.67,1.74E+08
19113,-5.536,-1.3672,66.643,1.29E+08
19114,-5.6857,-0.32517,68.906,1.33E+08
19115,-5.3532,-2.9471,68.241,1.23E+08
19116,-5.092,0.45117,67.221,1.60E+08
19117,-3.9158,0.6784,68.082,2.57E+08
19118,-3.074,-3.8405,66.3,2.77E+08
19119,-3.8858,-3.9553,67.104,2.26E+08
19120,-3.6128,2.2279,67.975,3.44E+08
19121,-5.3163,-1.2752,66.121,2.06E+08
19122,-5.1336,-2.855,67.719,1.90E+08
19123,-4.8723,0.54327,66.699,2.36E+08
19124,-3.5673,-1.89,65.143,2.47E+08
19125,-4.399,-3.3462,65.644,2.10E+08
19126,-3.9762,12.905,74.296,2.22E+08
19127,-4,9.0983,72.036,2.20E+08
19128,-4,8.977,72.571,1.71E+08
19129,-4.1142,10.808,73.78,1.69E+08
19130,-4.1697,11.548,74.2,1.70E+08
19131,-3.8948,11.634,73.003,2.98E+08
19132,-5.1069,10.455,72.377,1.71E+08
19133,-5.5243,12.326,73.249,1.50E+08
19134,-3.7739,16.462,76.776,1.98E+08
19135,-3.4207,18.979,79.026,1.45E+08
19136,-3.0849,19.127,78.887,1.46E+08
19137,-3.7932,19.308,77.864,1.24E+08
19138,-3.9377,18.275,76.468,1.50E+08
19139,-4.228,13.425,75.271,1.75E+08
19140,-3.7722,13.526,74.117,3.02E+08
19141,-4.1005,16.587,75.114,1.75E+08
19142,-5.4754,14.186,74.366,1.64E+08
19143,-5.5939,15.709,75.39,1.52E+08
19144,-4,4.9866,70.009,2.14E+08
19145,-4,4.8977,71.186,1.37E+08
19146,-4,7.0094,71.504,1.72E+08
19147,-3.9319,9.6894,71.867,2.88E+08
19148,-3.9175,6.4607,70.113,2.92E+08
19149,-5.9575,6.6519,70.57,1.40E+08
19150,-5.1069,8.5074,71.24,1.67E+08
19151,-4.791,5.9783,71.102,1.55E+08
19152,-4,2.7411,70.306,1.33E+08
19153,-4,0.8875,70.031,1.28E+08
19154,-3.913,4.2935,69.197,2.88E+08
19155,-5.6857,1.8984,69.462,1.38E+08
19156,-5.092,2.6748,67.777,1.65E+08
19157,-5.6296,3.735,68.059,1.56E+08
19158,-4.791,3.8217,70.222,1.54E+08
19159,2.5,-13.55,64.472,8.45E+07
19160,0,-15.983,64.043,3.60E+07
19161,2.8376,-15.886,64.1,4.43E+07
19162,3.2554,-14.904,64.441,6.05E+07
19163,2.9813,-15.309,63.479,3.43E+07
19164,1.8875,-15.928,62.67,3.35E+07
19165,2.3072,-14.868,63.442,5.04E+07
19166,0.52074,-15.223,63.269,4.40E+07
19167,2.5,-8.6855,65.33,2.07E+08
19168,0,-6.2531,65.759,2.58E+08
19169,3.5607,-8.7095,65.772,1.82E+08
19170,3.5607,-6.3033,66.196,2.01E+08
19171,3.9379,-7.7958,64.401,1.74E+08
19172,4.1074,-5.4323,65.038,2.01E+08
19173,1.3658,-7.4299,63.827,2.12E+08
19174,1.7736,-4.9497,64.119,2.56E+08
19175,0,-13.55,64.472,8.56E+07
19176,0,-11.118,64.901,1.39E+08
19177,0,-8.6855,65.33,1.89E+08
19178,3.5607,-11.142,65.343,1.12E+08
19179,3.2554,-12.471,64.87,1.07E+08
19180,0.48565,-12.007,63.032,1.03E+08
19181,3.9379,-10.228,63.972,1.02E+08
19182,2.9813,-12.876,63.907,8.48E+07
19183,3.7925,-12.002,64.042,8.31E+07
19184,1.3658,-9.8623,63.398,1.43E+08
19185,2.6511,-11.973,62.512,9.50E+07
19186,2.3072,-12.436,63.871,1.00E+08
19187,0.52074,-12.791,63.697,9.18E+07
19188,-2.5,-13.55,64.472,9.81E+07
19189,-2.8367,-15.884,64.102,5.57E+07
19190,-2.9551,-15.276,64.24,6.43E+07
19191,-2.959,-15.707,63.58,4.22E+07
19192,-1.9793,-15.223,63.269,4.75E+07
19193,-2.5,-8.6855,65.33,2.03E+08
19194,-3.5607,-11.142,65.343,1.22E+08
19195,-3.2555,-12.471,64.87,1.27E+08
19196,-2.9551,-12.844,64.669,1.20E+08
19197,-3.0703,-9.8202,65.244,1.71E+08
19198,-2.0144,-12.007,63.032,1.13E+08
19199,-1.1342,-9.8623,63.398,1.51E+08
19200,-3.6519,-11.877,64.262,1.01E+08
19201,-3.1331,-9.5523,63.657,1.38E+08
19202,-1.9793,-12.791,63.697,1.03E+08
19203,-3.7337,-10.721,64.794,1.13E+08
19204,-3.5607,-6.3033,66.196,1.78E+08
19205,-3.0703,-7.3878,65.673,2.18E+08
19206,-1.1342,-7.4299,63.827,1.97E+08
19207,-0.72643,-4.9497,64.119,2.39E+08
19208,-3.1331,-7.1198,64.086,1.85E+08
19209,-3.0369,-4.2843,64.497,2.30E+08
19210,-3.8687,-5.7405,64.999,1.87E+08
19211,3.9534,-12.592,65.809,1.09E+08
19212,4,-8.8676,66.821,1.49E+08
19213,4,-9.7003,67.416,1.17E+08
19214,4.1142,-11.602,66.868,1.04E+08
19215,4.6879,-10.306,64.72,8.56E+07
19216,4.5425,-12.08,64.79,7.44E+07
19217,5.977,-11.24,66.147,6.14E+07
19218,4.8046,-10.078,66.809,1.00E+08
19219,3.2874,-15.404,64.376,6.08E+07
19220,3.4933,-14.77,64.659,7.28E+07
19221,3.28,-15.152,63.569,4.46E+07
19222,3.6534,-14.512,64.861,8.19E+07
19223,3.4525,-14.877,63.724,5.24E+07
19224,4.1396,-14.903,64.054,4.51E+07
19225,4.1465,-12.921,66.16,8.75E+07
19226,3.634,-14.26,64.05,6.57E+07
19227,4.4452,-13.386,64.184,6.24E+07
19228,4.3211,-14.286,64.379,5.91E+07
19229,4,-5.5439,68.535,1.37E+08
19230,4,-7.2622,67.788,1.40E+08
19231,4.2074,-6.6284,68.662,1.27E+08
19232,4.6879,-7.8999,65.144,1.08E+08
19233,4.8574,-5.5364,65.782,1.32E+08
19234,6.2096,-6.4594,67.563,9.67E+07
19235,5.5569,-4.7051,68.025,1.24E+08
19236,4.8046,-7.6717,67.233,1.24E+08
19237,4,0.82111,71.192,1.13E+08
19238,4,4.8063,71.652,1.43E+08
19239,4.1406,2.638,71.967,1.10E+08
19240,5.0925,2.0258,70.554,1.34E+08
19241,4,-2.842,70.4,1.11E+08
19242,4.091,0.78022,71.706,1.04E+08
19243,4.1013,-1.6987,71.259,9.92E+07
19244,5.0925,0.17218,70.279,1.21E+08
19245,5.5569,-1.9862,69.83,8.86E+07
19246,4,-6.3633,69.12,1.16E+08
19247,4.1031,-3.5338,70.765,1.04E+08
19248,4.1284,-5.7232,69.981,1.07E+08
19249,6.2096,-5.542,68.853,6.32E+07
19250,5.5569,-3.7877,69.314,9.51E+07
19251,4.091,-9.9956,67.839,1.02E+08
19252,4.1286,-7.4425,69.233,1.07E+08
19253,4.8046,-8.4726,67.776,9.25E+07
19254,4.1617,4.7483,72.279,1.26E+08
19255,4.1617,8.7658,73.165,1.53E+08
19256,5.5276,8.4327,72.171,1.95E+08
19257,-4,-9.7003,67.416,1.22E+08
19258,-4,-8.8676,66.821,1.47E+08
19259,-3.9587,-12.593,65.811,1.23E+08
19260,-4.1142,-11.602,66.868,1.20E+08
19261,-3.8843,-9.9085,66.051,1.56E+08
19262,-5.0753,-9.8941,66.213,8.91E+07
19263,-4.4019,-11.955,65.009,8.85E+07
19264,-4.4837,-10.799,65.542,9.63E+07
19265,-4.375,-11.488,66.705,1.15E+08
19266,-4,0.82111,71.192,6.20E+07
19267,-4,4.8063,71.652,8.71E+07
19268,-4.1142,2.6371,71.978,5.00E+07
19269,-5.6857,1.8411,70.562,6.58E+07
19270,-4.791,3.7644,71.322,7.80E+07
19271,-4,-6.3694,69.134,1.05E+08
19272,-4,-7.2622,67.788,1.33E+08
19273,-4.091,-9.9956,67.839,1.11E+08
19274,-4.1013,-7.7979,69.07,1.05E+08
19275,-5.0753,-8.2887,67.18,7.56E+07
19276,-4.375,-9.8826,67.671,1.05E+08
19277,-4,-2.842,70.4,8.41E+07
19278,-4,-5.5439,68.535,1.20E+08
19279,-4.1031,-6.0675,69.855,9.68E+07
19280,-4.1021,-3.8821,70.653,8.47E+07
19281,-5.3532,-4.436,69.107,6.73E+07
19282,-4.091,0.78022,71.706,5.37E+07
19283,-4.1023,-2.0792,71.168,7.12E+07
19284,-5.6857,-1.25E-02,70.287,7.10E+07
19285,-5.3532,-2.6345,69.622,5.86E+07
19286,-3.8843,-7.5023,66.475,1.71E+08
19287,-5.0753,-7.4878,66.637,1.04E+08
19288,-5.3532,-5.3534,67.817,1.04E+08
19289,-4.6187,-5.8446,65.742,1.14E+08
19290,-4.1617,8.7658,73.165,1.12E+08
19291,-4.1617,4.7483,72.279,7.65E+07
19292,-5.1069,8.4052,71.777,1.16E+08
19293,-4.791,5.8761,71.639,1.02E+08
19294,-3.6604,-14.513,64.861,1.01E+08
19295,-4.146,-12.923,66.158,1.07E+08
19296,-3.613,-14.235,64.854,9.96E+07
19297,-4.3046,-13.261,64.404,8.32E+07
19298,-4.2112,-14.345,64.362,7.70E+07
19299,-3.2925,-15.405,64.375,7.73E+07
19300,-3.4057,-14.856,64.551,8.65E+07
19301,-4.0301,-14.962,64.036,6.07E+07
19302,-3.4306,-15.275,63.826,6.63E+07
19303,-3.2363,-15.13,64.39,7.84E+07
19304,-3.2575,-15.55,63.671,5.69E+07
19305,68.918,-15.268,11.5,1.12E+08
19306,66.995,-17.185,10.056,1.06E+08
19307,67.958,-16.268,11.219,1.06E+08
19308,70.431,-13.617,10.833,1.22E+08
19309,67.308,-16.053,7.6784,1.20E+08
19310,67.378,-14.457,8.2798,1.18E+08
19311,68.425,-13.037,9.5903,1.11E+08
19312,66.85,-14.76,10.602,1.05E+08
19313,69.105,-13.592,8.0641,1.24E+08
19314,68.918,-15.268,15.5,9.75E+07
19315,67.958,-16.268,13.219,9.88E+07
19316,71.256,-12.716,14.833,1.08E+08
19317,70.431,-13.617,12.833,1.15E+08
19318,68.425,-13.037,11.59,1.04E+08
19319,68.531,-13.245,13.948,9.50E+07
19320,66.85,-14.76,12.602,9.84E+07
19321,66.912,-15.31,13.984,9.39E+07
19322,67.958,-16.268,15.219,9.15E+07
19323,67.091,-17.096,16.539,8.58E+07
19324,71.256,-12.716,16.833,1.00E+08
19325,66.293,-14.815,17.895,7.67E+07
19326,68.531,-13.245,15.948,8.76E+07
19327,66.707,-13.814,16.699,7.90E+07
19328,68.813,-13.815,18.673,8.05E+07
19329,67.174,-15.336,18.898,7.73E+07
19330,66.912,-15.31,15.984,8.67E+07
19331,38.298,-10.944,0,1.27E+08
19332,40.204,-13.831,-2.1933,1.28E+08
19333,37.341,-14.924,-1.7724,1.30E+08
19334,39.423,-15.475,-0.48888,1.19E+08
19335,37.623,-14.926,0.79797,1.22E+08
19336,36.899,-12.231,-1.2276,1.20E+08
19337,36.751,-12.404,1.1114,1.16E+08
19338,40.053,-13.751,0.66375,1.02E+08
19339,37.968,-13.585,-2.5364,1.31E+08
19340,36.454,-13.843,-0.19212,1.18E+08
19341,57.788,8.1102,11.448,1.11E+08
19342,55.558,5.961,9.6695,1.16E+08
19343,56.622,6.92,11.478,1.22E+08
19344,59.18,9.6295,10.839,9.75E+07
19345,59.324,9.7865,8.7946,8.80E+07
19346,58.12,6.3759,7.2803,6.94E+07
19347,59.816,7.4915,10.53,8.07E+07
19348,57.958,5.6493,10.212,8.07E+07
19349,59.841,7.1737,8.6079,6.93E+07
19350,58.834,7.7104,7.8727,7.80E+07
19351,59.607,9.0185,7.6329,7.76E+07
19352,58.076,6.977,7.0554,7.34E+07
19353,57.788,8.1102,16.125,1.37E+08
19354,56.622,6.92,14.03,1.36E+08
19355,59.18,9.6295,13.391,1.11E+08
19356,58.733,9.1414,15.131,1.22E+08
19357,59.816,7.4915,13.083,9.43E+07
19358,58.636,6.399,15.054,1.06E+08
19359,57.958,5.6493,12.764,9.41E+07
19360,55.337,5.7751,17.798,1.61E+08
19361,56.622,6.92,16.155,1.48E+08
19362,58.733,9.1414,17.256,1.34E+08
19363,58.919,5.6337,20.375,1.21E+08
19364,56.765,4.9778,18.649,1.27E+08
19365,59.878,8.229,18.844,1.27E+08
19366,58.636,6.399,17.179,1.18E+08
19367,13,47.288,52.695,9.73E+07
19368,10.526,46.625,52.169,9.67E+07
19369,13,44.02,52.81,1.47E+08
19370,11.363,45.249,53.385,1.02E+08
19371,11.281,43.092,52.458,1.44E+08
19372,13,50.305,56.332,6.74E+07
19373,10.526,48.396,53.746,7.92E+07
19374,10.493,49.835,55.564,6.81E+07
19375,13,45.823,54.337,1.26E+08
19376,13,48.048,56.458,7.18E+07
19377,11.363,47.053,54.911,8.73E+07
19378,13,51.884,60.786,5.14E+07
19379,10.493,50.962,57.651,5.85E+07
19380,10.709,51.708,59.906,5.25E+07
19381,13,49.215,58.512,6.33E+07
19382,13,49.866,60.783,4.40E+07
19383,11.177,49.447,59.522,5.20E+07
19384,10.55,51.831,65.512,5.50E+07
19385,10.709,52.046,62.253,4.92E+07
19386,13,50.254,63.114,4.25E+07
19387,11.17,50.349,64.144,4.65E+07
19388,-2.8278,50.62,72.652,6.86E+07
19389,-6.1278,50.602,70.188,5.39E+07
19390,-3.6778,50.602,70.188,5.12E+07
19391,-4.0511,50.862,74.489,6.10E+07
19392,-5.9644,50.853,74.422,5.87E+07
19393,-6.8724,49.084,73.593,5.17E+07
19394,-5.241,48.872,71.01,5.41E+07
19395,-7.8738,49.386,72.072,5.80E+07
19396,-4.8923,49.185,73.955,5.19E+07
19397,2.4158,50.62,72.652,6.97E+07
19398,-0.85,50.602,70.188,5.21E+07
19399,1.6,50.602,70.188,5.54E+07
19400,0.92701,50.899,74.765,6.29E+07
19401,-1.2233,50.862,74.489,6.20E+07
19402,0.90477,47.743,72.08,5.58E+07
19403,-2.4131,48.872,71.01,5.39E+07
19404,1.9254,48.795,74.227,5.46E+07
19405,-2.0645,49.185,73.955,5.26E+07
19406,0.3034,48.859,70.816,5.34E+07
19407,-9.53E-02,48.961,74.177,5.29E+07
19408,-1.5147,47.483,72.879,4.87E+07
19409,4.0158,50.602,70.188,5.62E+07
19410,6.4658,50.602,70.188,6.01E+07
19411,3.3428,50.899,74.765,6.27E+07
19412,5.382,50.937,75.053,6.19E+07
19413,3.3206,47.743,72.08,5.71E+07
19414,7.1161,48.289,73.127,6.95E+07
19415,7.5465,49.714,71.916,6.40E+07
19416,4.3412,48.795,74.227,5.57E+07
19417,5.4584,48.641,70.996,6.33E+07
19418,2.7192,48.859,70.816,5.36E+07
19419,-4.15,51.187,67.795,3.92E+07
19420,-5.0568,51.776,65.789,3.15E+07
19421,-8.5063,49.762,66.815,4.50E+07
19422,-8.0148,49.957,64.938,4.29E+07
19423,-5.7131,49.155,68.581,4.40E+07
19424,-8.346,49.669,69.643,5.12E+07
19425,-5.9304,49.582,66.212,3.87E+07
19426,0.75,51.187,67.795,3.81E+07
19427,-1.9472,47.912,66.143,3.53E+07
19428,-2.6068,51.776,65.789,1.98E+07
19429,-0.51441,51.789,65.727,1.51E+07
19430,-0.59194,49.805,64.684,1.58E+07
19431,0.88094,49.717,66.545,2.83E+07
19432,-3.2631,49.155,68.581,3.83E+07
19433,-3.4804,49.582,66.212,2.92E+07
19434,-0.5466,49.142,68.387,3.55E+07
19435,5.65,51.187,67.795,5.60E+07
19436,1.9356,51.789,65.727,2.37E+07
19437,3.9711,51.763,65.849,3.43E+07
19438,3.3309,49.717,66.545,3.62E+07
19439,4.6426,48.924,68.568,5.36E+07
19440,1.9034,49.142,68.387,4.11E+07
19441,8.2589,51.969,64.624,5.13E+07
19442,6.4211,51.763,65.849,4.64E+07
19443,5.7809,49.717,66.545,4.54E+07
19444,8.7203,49.909,66.466,5.47E+07
19445,9.1807,49.997,69.488,6.22E+07
19446,7.0926,48.924,68.568,6.25E+07
19447,9.2329,50.072,68.18,6.08E+07
19448,4.5368,6.6451,73.229,1.24E+08
19449,4.4187,0.10143,72.131,9.90E+07
19450,5.3121,1.9827,71.083,1.23E+08
19451,4.4758,11.36,74.556,1.51E+08
19452,5.7473,10.299,73.269,1.98E+08
19453,5.6401,11.81,74.109,2.18E+08
19454,-4.5368,6.6451,73.229,7.14E+07
19455,-4.532,11.396,74.625,1.17E+08
19456,-5.3266,10.271,72.875,1.24E+08
19457,-5.744,12.143,73.746,1.10E+08
19458,-4.427,-0.28463,72.072,5.47E+07
19459,-5.9053,1.798,71.09,7.14E+07
19460,-5.0107,3.7213,71.85,7.86E+07
19461,17.886,39.236,-63.411,1.30E+06
19462,18,38.887,-61.238,1.01E+06
19463,17.886,38.605,-63.922,1.50E+06
19464,18,36.469,-63.121,2.04E+06
19465,16.579,38.002,-62.523,1.83E+06
19466,17.074,40.043,-63.496,1.23E+06
19467,16.5,40.379,-61.395,3.25E+06
19468,16.5,39.983,-64.067,1.07E+06
19469,14.25,40.157,-63.508,1.71E+06
19470,15.829,38.748,-62.601,1.59E+06
19471,17.074,40.265,-61.383,3.03E+06
19472,17.886,39.458,-61.298,1.41E+06
19473,17.725,39.21,-64.024,1.15E+06
19474,17.112,39.819,-64.088,9.59E+05
19475,16.36,38.53,-62.578,1.50E+06
19476,16.5,41.712,-48.715,2.31E+06
19477,17.074,41.82,-46.589,6.06E+05
19478,14.25,41.934,-46.601,1.68E+06
19479,16.5,41.88,-46.019,6.06E+05
19480,16.046,40.673,-46.961,8.53E+05
19481,16.5,40.823,-57.168,6.25E+06
19482,17.561,40.164,-59.236,3.94E+06
19483,14.25,40.379,-61.395,3.96E+06
19484,14.539,40.699,-58.347,7.91E+06
19485,15.951,39.102,-58.288,5.45E+06
19486,15.829,38.97,-60.488,3.51E+06
19487,16.5,41.267,-52.941,5.52E+06
19488,17.561,40.608,-55.009,7.75E+06
19489,17.561,40.386,-57.122,4.71E+06
19490,14.578,41.172,-53.851,8.91E+06
19491,14.539,40.921,-56.234,9.11E+06
19492,15.951,39.324,-56.175,6.79E+06
19493,15.514,39.822,-54.6,8.09E+06
19494,17.074,41.598,-48.703,2.09E+06
19495,17.561,41.053,-50.782,2.80E+06
19496,17.561,40.83,-52.895,5.82E+06
19497,14.25,41.712,-48.715,3.29E+06
19498,14.578,41.394,-51.738,7.32E+06
19499,15.892,39.608,-50.683,3.92E+06
19500,16.046,40.451,-49.074,2.51E+06
19501,15.514,40.044,-52.487,6.12E+06
19502,17.886,41.013,-46.505,7.58E+05
19503,18,40.22,-48.558,8.34E+05
19504,17.886,40.502,-45.874,1.26E+06
19505,18,38.246,-46.214,2.64E+06
19506,16.796,39.927,-46.882,6.56E+05
19507,17.886,40.791,-48.618,9.55E+05
19508,17.725,41.115,-45.9,9.51E+05
19509,17.112,41.724,-45.964,5.23E+05
19510,16.577,40.455,-46.938,5.67E+05
19511,18,39.776,-52.785,6.17E+06
19512,18,37.046,-50.661,9.59E+06
19513,18,38.046,-52.393,6.41E+06
19514,18,38.024,-48.327,3.82E+06
19515,16.642,38.862,-50.604,3.41E+06
19516,16.796,39.705,-48.996,1.31E+06
19517,16.264,39.298,-52.408,5.68E+06
19518,18,39.331,-57.011,6.19E+06
19519,18,37.824,-54.506,1.02E+07
19520,16.701,38.578,-56.096,8.23E+06
19521,16.264,39.076,-54.522,9.38E+06
19522,18,37.602,-56.619,6.28E+06
19523,18,36.602,-58.351,1.10E+07
19524,18,36.691,-61.007,3.96E+06
19525,16.701,38.356,-58.21,4.81E+06
19526,16.579,38.224,-60.409,2.19E+06
19527,-1.6142,39.236,-63.411,8.10E+05
19528,-1.5,38.887,-61.238,3.92E+05
19529,-1.6142,38.605,-63.922,1.12E+06
19530,-1.5,36.241,-63.097,2.58E+06
19531,-2.9019,38.047,-62.683,8.50E+05
19532,-2.426,40.043,-63.496,6.35E+05
19533,-3,40.379,-61.395,1.76E+06
19534,-3,39.983,-64.067,6.11E+05
19535,-5.25,40.157,-63.508,1.05E+06
19536,-3.6519,38.793,-62.761,7.89E+05
19537,-2.426,40.265,-61.383,1.64E+06
19538,-1.6142,39.458,-61.298,5.49E+05
19539,-2.3876,39.819,-64.088,5.00E+05
19540,-1.7753,39.21,-64.024,8.51E+05
19541,-3.1215,38.575,-62.738,6.35E+05
19542,-3,41.712,-48.715,2.80E+06
19543,-2.426,41.82,-46.589,1.03E+06
19544,-5.25,41.934,-46.601,1.94E+06
19545,-3,41.88,-46.019,9.60E+05
19546,-3.6386,40.542,-47.114,1.64E+06
19547,-3,40.823,-57.168,4.27E+06
19548,-1.9393,40.164,-59.236,2.13E+06
19549,-5.25,40.379,-61.395,2.20E+06
19550,-4.9609,40.699,-58.347,4.90E+06
19551,-3.6519,39.015,-60.648,1.82E+06
19552,-3.9085,39.191,-58.604,3.02E+06
19553,-3,41.267,-52.941,4.96E+06
19554,-1.9393,40.608,-55.009,6.34E+06
19555,-1.9393,40.386,-57.122,3.60E+06
19556,-2.25,38.822,-53.5,6.68E+06
19557,-5.0239,39.053,-54.874,3.83E+06
19558,-4.9219,41.172,-53.851,6.43E+06
19559,-4.9609,40.921,-56.234,6.26E+06
19560,-3.9085,39.413,-56.491,4.45E+06
19561,-2.426,41.598,-48.703,2.55E+06
19562,-1.9393,41.053,-50.782,3.01E+06
19563,-1.9393,40.83,-52.895,5.03E+06
19564,-2.25,39.044,-51.386,5.06E+06
19565,-5.25,41.712,-48.715,3.52E+06
19566,-4.9219,41.394,-51.738,5.78E+06
19567,-3.6386,40.32,-49.227,3.14E+06
19568,-1.6142,41.013,-46.505,9.94E+05
19569,-1.5,40.22,-48.558,7.55E+05
19570,-1.6142,40.502,-45.874,1.06E+06
19571,-1.5,38.018,-46.19,3.42E+06
19572,-2.8886,39.796,-47.035,1.76E+06
19573,-1.6142,40.791,-48.618,1.12E+06
19574,-2.3876,41.724,-45.964,7.91E+05
19575,-1.7753,41.115,-45.9,8.22E+05
19576,-3.1083,40.324,-47.091,1.46E+06
19577,-1.5,39.776,-52.785,4.89E+06
19578,-1.5,38.299,-51.308,6.03E+06
19579,-1.5,37.796,-48.303,4.64E+06
19580,-2.8886,39.574,-49.149,1.67E+06
19581,-1.5,39.331,-57.011,4.51E+06
19582,-1.5,38.076,-53.421,8.52E+06
19583,-1.5,38.076,-55.591,7.63E+06
19584,-4.2739,38.307,-54.796,4.74E+06
19585,-3.1585,38.667,-56.413,5.21E+06
19586,-1.5,37.854,-57.704,4.74E+06
19587,-1.5,36.158,-59.057,6.99E+06
19588,-1.5,36.463,-60.983,3.49E+06
19589,-2.9019,38.269,-60.569,8.51E+05
19590,-3.1585,38.445,-58.526,2.36E+06
19591,1.5,28.63,-56.114,2.05E+07
19592,1.5,28.63,-52.114,2.59E+07
19593,3.5625,28.095,-54.114,2.96E+07
19594,1.5,26.329,-55.855,3.71E+07
19595,1.5,26.551,-53.742,4.77E+07
19596,1.5,26.773,-51.628,5.21E+07
19597,1.5,32.095,-58.114,2.20E+07
19598,3.5625,28.63,-56.114,2.78E+07
19599,1.5,29.531,-59.955,2.91E+07
19600,1.5,32.206,-60.236,1.55E+07
19601,1.5,27.329,-57.587,5.55E+07
19602,4.2594,31.569,-58.079,2.10E+07
19603,4.833,29.769,-57.369,1.88E+07
19604,4.2166,29.39,-59.058,2.04E+07
19605,2.8763,27.975,-58.971,3.56E+07
19606,3.177,31.452,-59.298,1.87E+07
19607,1.5,35.559,-56.114,1.52E+07
19608,1.5,36.581,-58.551,1.11E+07
19609,1.5,34.206,-60.236,1.33E+07
19610,4.2594,33.622,-57.811,1.60E+07
19611,3.5725,35.045,-56.815,1.38E+07
19612,3.177,33.452,-59.298,1.43E+07
19613,4.2031,35.482,-58.339,1.20E+07
19614,1.5,35.559,-52.114,1.76E+07
19615,1.5,37.581,-56.819,7.75E+06
19616,1.5,37.824,-54.506,1.15E+07
19617,1.5,38.046,-52.393,7.98E+06
19618,3.5725,36,-54.979,1.02E+07
19619,4.2168,35.958,-53.077,1.06E+07
19620,3.3986,37.322,-53.671,9.63E+06
19621,1.5,32.095,-50.114,2.16E+07
19622,1.5,37.046,-50.661,1.30E+07
19623,1.5,34.844,-48.292,1.61E+07
19624,1.5,32.42,-48.038,2.46E+07
19625,4.2168,34.922,-51.284,1.57E+07
19626,3.7324,33.507,-50.372,1.74E+07
19627,2.9205,34.378,-49.117,1.66E+07
19628,3.3986,36.322,-51.939,1.47E+07
19629,3.5956,32.684,-48.712,2.07E+07
19630,3.5625,28.63,-52.114,3.14E+07
19631,1.5,27.773,-49.896,7.34E+07
19632,1.5,30.42,-48.038,2.06E+07
19633,3.7324,31.446,-50.167,1.60E+07
19634,5.1337,30.119,-50.636,1.63E+07
19635,3.2176,28.823,-49.316,3.77E+07
19636,3.5956,30.684,-48.712,2.04E+07
19637,15.937,28.095,-54.114,1.99E+07
19638,18,28.63,-52.114,1.56E+07
19639,18,28.63,-56.114,1.74E+07
19640,18,26.789,-51.735,1.76E+07
19641,18,26.345,-55.962,1.88E+07
19642,18,26.165,-53.8,2.39E+07
19643,16.584,27.368,-55.688,1.60E+07
19644,16.054,26.766,-52.442,2.33E+07
19645,7.6875,28.095,-54.114,4.85E+07
19646,3.5625,26.329,-55.855,5.55E+07
19647,3.5625,26.551,-53.742,6.76E+07
19648,3.5625,26.773,-51.628,7.20E+07
19649,5.6405,25.436,-55.386,7.60E+07
19650,5.6986,25.641,-52.985,8.93E+07
19651,6.8955,28.453,-55.77,4.35E+07
19652,7.1962,28.645,-52.09,4.43E+07
19653,7.8892,26.11,-54.206,4.95E+07
19654,5.2801,27.823,-51.048,6.33E+07
19655,4.9388,26.975,-57.239,5.11E+07
19656,6.708,26.712,-56.421,5.29E+07
19657,7.5395,27.265,-52.448,5.16E+07
19658,11.812,28.095,-54.114,3.19E+07
19659,8.958,28.453,-55.77,3.64E+07
19660,10.634,28.315,-55.424,3.56E+07
19661,9.2587,28.645,-52.09,4.02E+07
19662,9.9517,26.11,-54.206,5.19E+07
19663,8.7705,26.712,-56.421,4.60E+07
19664,9.602,27.265,-52.448,5.22E+07
19665,15.937,28.63,-52.114,1.52E+07
19666,15.937,28.63,-56.114,1.58E+07
19667,12.696,28.315,-55.424,2.43E+07
19668,11.321,28.645,-52.09,2.59E+07
19669,15.937,26.165,-53.8,2.30E+07
19670,14.522,27.368,-55.688,2.04E+07
19671,12.014,26.11,-54.206,4.08E+07
19672,14.08,25.319,-54.959,3.64E+07
19673,13.991,26.766,-52.442,3.07E+07
19674,11.664,27.265,-52.448,3.99E+07
19675,18,32.095,-50.114,1.44E+07
19676,18,28.68,-47.855,2.38E+07
19677,18,30.876,-48.086,1.54E+07
19678,15.578,31.414,-50.172,1.39E+07
19679,13.384,30.119,-50.636,1.80E+07
19680,18,27.789,-50.003,1.84E+07
19681,15.91,28.703,-48.899,2.52E+07
19682,16.274,32.143,-48.987,1.20E+07
19683,16.054,27.766,-50.71,2.53E+07
19684,18,35.559,-52.114,1.33E+07
19685,18,32.876,-48.086,1.52E+07
19686,18,35.072,-48.316,1.08E+07
19687,15.578,33.476,-50.36,1.50E+07
19688,15.241,35.266,-51.676,1.16E+07
19689,16.274,34.143,-48.987,1.32E+07
19690,16.642,35.911,-50.594,1.08E+07
19691,18,35.559,-56.114,1.42E+07
19692,15.241,36.06,-53.588,8.00E+06
19693,15.756,35.869,-55.437,1.00E+07
19694,16.642,36.911,-52.326,6.92E+06
19695,16.701,36.849,-55.704,7.95E+06
19696,16.264,37.346,-54.13,8.99E+06
19697,18,32.095,-58.114,1.57E+07
19698,18,34.184,-60.234,1.24E+07
19699,18,31.987,-60.003,1.77E+07
19700,15.756,34.702,-57.147,1.53E+07
19701,15.241,33.01,-58.008,1.51E+07
19702,16.607,33.095,-59.111,1.56E+07
19703,16.701,35.849,-57.436,1.31E+07
19704,16.579,35.717,-59.636,1.02E+07
19705,18,29.987,-60.003,1.47E+07
19706,18,27.791,-59.772,1.35E+07
19707,15.241,30.94,-57.944,1.08E+07
19708,14.759,29.476,-57.138,1.53E+07
19709,18,27.345,-57.694,1.50E+07
19710,16.584,28.368,-57.42,1.31E+07
19711,16.607,31.095,-59.111,1.28E+07
19712,17.17,28.618,-58.931,1.31E+07
19713,1.6142,41.013,-46.505,1.14E+06
19714,1.5,40.22,-48.558,1.13E+06
19715,1.5,38.018,-46.19,4.57E+06
19716,1.6142,40.502,-45.874,1.17E+06
19717,3.0762,39.797,-47.055,2.17E+06
19718,2.426,41.82,-46.589,1.32E+06
19719,3,41.712,-48.715,3.73E+06
19720,1.9393,41.275,-48.669,1.77E+06
19721,5.25,41.934,-46.601,2.30E+06
19722,3,41.88,-46.019,1.15E+06
19723,3.8262,40.543,-47.133,2.19E+06
19724,1.6142,40.791,-48.618,1.49E+06
19725,1.7753,41.115,-45.9,1.02E+06
19726,2.3876,41.724,-45.964,9.66E+05
19727,3.2958,40.324,-47.11,2.00E+06
19728,3,40.379,-61.395,2.57E+06
19729,2.426,40.043,-63.496,9.90E+05
19730,3,39.983,-64.067,8.20E+05
19731,5.25,40.157,-63.508,1.25E+06
19732,3.7643,39.029,-62.881,8.88E+05
19733,3,41.267,-52.941,7.54E+06
19734,1.9393,41.053,-50.782,4.20E+06
19735,5.25,41.712,-48.715,4.53E+06
19736,5.5313,41.471,-51.004,7.81E+06
19737,3.8262,40.32,-49.246,4.12E+06
19738,4.1486,40.019,-52.028,6.82E+06
19739,3,40.823,-57.168,6.89E+06
19740,1.9393,40.608,-55.009,9.04E+06
19741,1.9393,40.83,-52.895,6.02E+06
19742,4.3225,38.383,-55.429,8.66E+06
19743,6.375,41.045,-55.055,1.14E+07
19744,5.5313,40.842,-56.992,9.40E+06
19745,5.5313,41.249,-53.118,9.63E+06
19746,4.1486,39.797,-54.141,9.18E+06
19747,4.9531,38.957,-57.077,7.35E+06
19748,2.426,40.265,-61.383,2.35E+06
19749,1.9393,40.386,-57.122,6.36E+06
19750,5.25,40.379,-61.395,3.47E+06
19751,4.3225,38.161,-57.542,5.98E+06
19752,5.5313,40.62,-59.105,7.18E+06
19753,3.3438,39.694,-59.172,4.46E+06
19754,3.7643,39.251,-60.768,2.98E+06
19755,4.9531,38.735,-59.191,5.62E+06
19756,1.6142,39.236,-63.411,1.11E+06
19757,1.5,38.866,-61.438,1.29E+06
19758,1.6142,38.605,-63.922,1.82E+06
19759,1.5,36.491,-63.123,3.99E+06
19760,3.0143,38.283,-62.803,8.63E+05
19761,1.6142,39.437,-61.498,1.42E+06
19762,1.6142,39.68,-59.185,4.67E+06
19763,2.3876,39.819,-64.088,8.71E+05
19764,1.7753,39.21,-64.024,1.60E+06
19765,2.8135,39.253,-61.263,1.67E+06
19766,3.2339,38.811,-62.858,8.27E+05
19767,1.5,39.31,-57.211,6.30E+06
19768,1.5,36.692,-61.209,5.58E+06
19769,3.5725,37.394,-57.663,5.42E+06
19770,2.5938,38.927,-59.294,3.06E+06
19771,3.177,35.939,-60.271,5.76E+06
19772,3.0143,38.485,-60.889,1.52E+06
19773,4.2031,37.968,-59.312,3.97E+06
19774,1.5,39.776,-52.785,6.32E+06
19775,3.5725,37.637,-55.35,9.03E+06
19776,2.5938,39.17,-56.98,6.39E+06
19777,3.3986,39.051,-54.063,8.81E+06
19778,1.5,37.796,-48.303,6.49E+06
19779,2.9205,37.329,-49.128,6.58E+06
19780,3.0762,39.575,-49.168,2.64E+06
19781,3.3986,39.273,-51.95,5.65E+06
19782,30,-12.31,-52.043,4.63E+07
19783,30,-12.262,-53.937,3.10E+07
19784,32.5,-12.5,-53,3.44E+07
19785,30.491,-13.781,-51.664,3.53E+07
19786,28.414,-13.355,-53.292,4.07E+07
19787,30.901,-13.776,-53.399,2.96E+07
19788,28.888,-12.242,-52.417,4.93E+07
19789,30,-8.75,-51.75,6.90E+07
19790,30,-10.957,-50.69,5.79E+07
19791,30,-9.0433,-50.69,7.27E+07
19792,30,-9.1161,-52.634,4.63E+07
19793,31.407,-10.225,-50.51,3.78E+07
19794,28.816,-9.3548,-51.172,6.99E+07
19795,30.811,-9.1338,-49.488,6.42E+07
19796,28.929,-10.235,-49.283,6.75E+07
19797,31.148,-11.561,-50.081,4.94E+07
19798,30,-7.7379,-52.063,7.68E+07
19799,30,-7.6903,-53.957,5.21E+07
19800,31.489,-7.5897,-52.336,6.27E+07
19801,31.656,-7.7773,-54.144,4.79E+07
19802,29.968,-6.0679,-51.756,8.31E+07
19803,30.899,-6.2756,-53.843,6.00E+07
19804,28.816,-8.1048,-52.421,7.41E+07
19805,28.388,-5.9657,-53.32,8.91E+07
19806,30,-10.884,-53.366,2.85E+07
19807,30,-9.0433,-55.31,2.36E+07
19808,30,-10.957,-55.31,1.65E+07
19809,30.239,-11.416,-57.187,1.73E+07
19810,31.656,-9.2375,-55.381,2.02E+07
19811,28.532,-9.6597,-55.592,2.55E+07
19812,28.816,-9.3548,-53.672,4.06E+07
19813,30.837,-9.752,-56.183,1.79E+07
19814,30,-10,-53,3.94E+07
19815,30,-11.768,-53,3.39E+07
19816,32.5,-12.31,-52.043,3.85E+07
19817,31.407,-11.16,-50.786,3.02E+07
19818,30.491,-13.415,-50.781,3.87E+07
19819,28.816,-10.239,-51.538,6.26E+07
19820,28.929,-11.119,-49.649,5.97E+07
19821,31.148,-12.445,-50.447,4.17E+07
19822,28.888,-11.876,-51.533,5.27E+07
19823,31.407,-9.2547,-50.614,4.49E+07
19824,31.489,-8.0272,-51.464,6.77E+07
19825,29.968,-6.434,-50.872,8.68E+07
19826,28.816,-8.4709,-51.538,7.76E+07
19827,30.811,-8.2499,-49.854,7.19E+07
19828,28.929,-9.351,-49.649,7.48E+07
19829,28.276,-7.664,-49.952,9.22E+07
19830,31.656,-8.3844,-54.908,3.10E+07
19831,30.899,-6.6417,-54.727,3.83E+07
19832,28.532,-8.7758,-55.226,3.54E+07
19833,28.816,-8.4709,-53.305,5.14E+07
19834,28.388,-6.3318,-54.204,6.65E+07
19835,29.467,-6.0846,-56.354,3.85E+07
19836,30.837,-8.8681,-55.817,2.76E+07
19837,32.5,-12.31,-53.957,2.19E+07
19838,32.049,-13.238,-56.303,9.88E+06
19839,28.061,-12.609,-56.674,2.61E+07
19840,30.239,-12.299,-56.821,1.54E+07
19841,29.334,-14.18,-55.517,1.98E+07
19842,33.193,-10.862,-55.347,1.34E+07
19843,31.656,-10.207,-55.491,2.05E+07
19844,28.532,-10.544,-55.226,2.85E+07
19845,33.614,-12.923,-55.27,1.13E+07
19846,28.816,-10.239,-53.305,4.60E+07
19847,28.414,-12.989,-54.176,3.00E+07
19848,30.837,-10.636,-55.817,1.82E+07
19849,30.901,-13.41,-54.283,1.86E+07
19850,28.888,-11.876,-53.301,3.72E+07
19851,33.382,-11.768,-54.768,1.69E+07
19852,30,-12.31,-32.043,1.41E+08
19853,30,-12.262,-33.937,1.27E+08
19854,32.5,-12.5,-33,1.55E+08
19855,28.738,-11.647,-33.297,1.32E+08
19856,30.554,-14.199,-32.771,1.12E+08
19857,28.674,-13.683,-32.799,1.15E+08
19858,30.918,-13.255,-31.562,1.25E+08
19859,30,-8.75,-31.75,1.67E+08
19860,30,-10.957,-30.69,1.47E+08
19861,30,-9.0433,-30.69,1.64E+08
19862,30,-9.1161,-32.634,1.27E+08
19863,31.407,-10.225,-30.51,9.62E+07
19864,28.738,-10.397,-32.047,1.38E+08
19865,31.532,-9.1935,-29.531,1.39E+08
19866,30.514,-10.803,-29.228,1.36E+08
19867,28.481,-11.095,-30.17,1.33E+08
19868,28.903,-9.0946,-30.089,1.44E+08
19869,30,-7.7379,-32.063,1.71E+08
19870,30,-7.6903,-33.957,1.40E+08
19871,31.489,-7.5897,-32.336,1.82E+08
19872,31.656,-7.7773,-34.144,1.36E+08
19873,28.738,-9.1473,-33.297,1.47E+08
19874,28.234,-5.8154,-32.714,1.72E+08
19875,30.381,-6.1508,-34.415,1.70E+08
19876,30.418,-6.372,-31.95,1.64E+08
19877,28.903,-7.8446,-31.339,1.53E+08
19878,28.531,-7.4076,-33.904,1.61E+08
19879,31.513,-6.5736,-32.99,1.61E+08
19880,30,-10.884,-33.366,1.03E+08
19881,30,-9.0433,-35.31,8.88E+07
19882,30,-10.957,-35.31,9.13E+07
19883,31.656,-9.2375,-35.381,8.21E+07
19884,28.738,-10.397,-34.547,9.37E+07
19885,30.681,-9.5078,-36.635,6.47E+07
19886,28.671,-10.768,-36.709,8.37E+07
19887,28.804,-8.7949,-37.175,9.20E+07
19888,28.531,-8.6576,-35.154,1.07E+08
19889,30,-10,-33,1.16E+08
19890,30,-11.768,-33,1.22E+08
19891,32.5,-12.31,-32.043,1.50E+08
19892,31.407,-11.16,-30.786,8.42E+07
19893,28.738,-11.281,-32.413,1.27E+08
19894,30.514,-11.687,-29.594,1.24E+08
19895,28.481,-11.979,-30.537,1.22E+08
19896,28.674,-13.317,-31.915,1.10E+08
19897,30.918,-12.889,-30.678,1.21E+08
19898,31.407,-9.2547,-30.614,9.99E+07
19899,31.489,-8.0272,-31.464,1.81E+08
19900,30.418,-6.7382,-31.066,1.57E+08
19901,31.532,-8.3096,-29.897,1.44E+08
19902,28.903,-8.2107,-30.455,1.50E+08
19903,31.656,-8.3844,-34.908,1.03E+08
19904,28.738,-9.5134,-34.181,1.07E+08
19905,30.381,-6.517,-35.298,1.32E+08
19906,30.681,-8.6239,-36.269,8.11E+07
19907,28.804,-7.9111,-36.809,1.07E+08
19908,28.531,-7.7737,-34.788,1.21E+08
19909,32.5,-12.31,-33.957,1.34E+08
19910,33.193,-10.862,-35.347,6.84E+07
19911,31.656,-10.207,-35.491,9.31E+07
19912,28.738,-11.281,-34.181,1.15E+08
19913,28.638,-13.886,-35.433,9.48E+07
19914,30.554,-13.833,-33.655,9.38E+07
19915,32.609,-12.928,-35.871,9.31E+07
19916,30.681,-10.392,-36.269,8.28E+07
19917,28.671,-11.651,-36.342,1.04E+08
19918,30.938,-13.878,-35.58,9.00E+07
19919,29.807,-11.656,-37.902,9.11E+07
19920,28.674,-13.317,-33.682,9.82E+07
19921,4.427,-9.4063,68.798,9.27E+07
19922,6.1967,-11.543,66.583,3.91E+07
19923,5.0243,-10.381,67.244,8.01E+07
19924,-4.4187,-9.7416,68.598,1.02E+08
19925,-4.5947,-11.791,67.14,1.03E+08
19926,6.8858,-17.574,-43.792,7.96E+07
19927,7,-16.411,-44.725,6.37E+07
19928,7,-18.067,-46.126,2.80E+07
19929,7.5377,-17.488,-43.914,5.78E+07
19930,7.8028,-17.94,-45.148,4.73E+07
19931,7.9512,-16.671,-44.991,6.10E+07
19932,6.074,-17.489,-42.984,1.01E+08
19933,5.5,-15.73,-43.388,1.50E+08
19934,3.6667,-17.477,-42.871,1.06E+08
19935,4.7888,-17.707,-41.498,1.09E+08
19936,6.1118,-17.885,-42.348,9.22E+07
19937,5.4851,-16.569,-42.493,1.13E+08
19938,6.2233,-15.739,-43.593,1.43E+08
19939,6.9683,-16.445,-44.369,7.98E+07
19940,6.8918,-15.864,-44.392,1.21E+08
19941,7.3181,-17.432,-43.387,8.94E+07
19942,6.6422,-17.908,-42.566,9.04E+07
19943,7.6255,-15.616,-43.378,1.02E+08
19944,7.7315,-16.616,-44.464,8.76E+07
19945,6.0154,-16.592,-42.712,1.05E+08
19946,5.5,-13.332,-46.052,2.06E+08
19947,6.074,-13.114,-47.843,2.24E+08
19948,3.6667,-13,-47.843,2.14E+08
19949,5.5,-13,-50.33,2.36E+08
19950,6.3082,-13.383,-46.67,1.75E+08
19951,4.8889,-11.265,-48.672,1.89E+08
19952,3.9407,-12.017,-46.254,1.82E+08
19953,5.4524,-11.115,-46.545,1.79E+08
19954,6.0666,-12.5,-46.661,1.89E+08
19955,6.68,-11.885,-48.085,1.79E+08
19956,3.6667,-13.332,-46.052,1.90E+08
19957,3.6667,-15.73,-43.388,1.41E+08
19958,6.2306,-14.151,-44.959,1.70E+08
19959,2.918,-14.285,-44.497,2.01E+08
19960,3.9407,-12.659,-44.581,1.69E+08
19961,7.0951,-13.997,-43.973,1.58E+08
19962,5.1113,-13.75,-42.975,1.60E+08
19963,6.0666,-13.142,-44.988,1.71E+08
19964,5.4851,-14.972,-43.307,1.59E+08
19965,6.8858,-13.926,-47.843,1.64E+08
19966,7,-14.732,-46.589,8.59E+07
19967,7,-14.5,-49.916,1.29E+08
19968,7,-16.5,-47.866,4.82E+07
19969,6.9731,-14.384,-46.733,1.27E+08
19970,8.0611,-13.804,-47.393,1.05E+08
19971,7.8028,-16.373,-46.888,6.73E+07
19972,8.1174,-16.139,-48.432,7.01E+07
19973,8.1643,-13.587,-49.12,1.04E+08
19974,7.9512,-15.104,-46.732,8.81E+07
19975,6.074,-13.114,-50.33,2.37E+08
19976,6.8858,-13.926,-49.916,1.87E+08
19977,6.7479,-13.815,-46.723,1.90E+08
19978,7.8414,-13.274,-47.393,1.79E+08
19979,7.9447,-13.057,-49.12,1.78E+08
19980,6.5969,-12.72,-46.661,1.86E+08
19981,7.2103,-12.105,-48.085,1.78E+08
19982,7,-16.949,-46.695,3.18E+07
19983,6.9446,-14.836,-45.557,1.09E+08
19984,7.8028,-16.822,-45.717,5.15E+07
19985,7.9512,-15.553,-45.561,6.77E+07
19986,-5.5,-13.332,-46.052,2.35E+08
19987,-3.6667,-13,-47.843,2.35E+08
19988,-6.074,-13.114,-47.843,2.33E+08
19989,-5.5,-13,-50.33,2.42E+08
19990,-6.3709,-13.368,-46.927,2.12E+08
19991,-6.4098,-12.062,-47.067,2.03E+08
19992,-4.5774,-11.873,-46.193,1.99E+08
19993,-5.4799,-11.46,-48.425,2.11E+08
19994,-5.5,-15.73,-43.388,1.82E+08
19995,-3.6667,-17.477,-42.871,1.31E+08
19996,-6.074,-17.489,-42.984,1.92E+08
19997,-6.3082,-16.35,-43.374,1.62E+08
19998,-5.0446,-16.181,-42.124,1.29E+08
19999,-4.6635,-17.674,-41.451,1.32E+08
20000,-6.0111,-17.779,-42.111,1.31E+08
20001,-6.3168,-16.65,-42.564,1.23E+08
20002,-3.6667,-13.332,-46.052,2.14E+08
20003,-3.6667,-15.73,-43.388,1.60E+08
20004,-6.339,-14.078,-45.175,1.93E+08
20005,-6.2306,-14.729,-44.317,2.16E+08
20006,-2.582,-14.285,-44.497,2.15E+08
20007,-6.4098,-12.704,-45.394,1.86E+08
20008,-5.0446,-14.585,-42.937,1.70E+08
20009,-4.5774,-12.515,-44.52,1.85E+08
20010,-6.883,-13.808,-44.014,1.72E+08
20011,-6.3168,-15.054,-43.378,1.71E+08
20012,-4.34E-16,-13,-47.843,2.11E+08
20013,-3.6667,-13,-50.33,2.17E+08
20014,-0.74862,-13.333,-46.05,1.99E+08
20015,-0.91667,-13,-50.33,1.90E+08
20016,-2.3238,-11.073,-49.921,1.87E+08
20017,-2.7441,-11.873,-46.193,1.78E+08
20018,0.27404,-12.017,-46.254,1.79E+08
20019,-3.6466,-11.46,-48.425,1.91E+08
20020,-0.74315,-10.627,-47.81,1.79E+08
20021,3.6667,-13,-50.33,2.13E+08
20022,1.0847,-13.333,-46.05,1.90E+08
20023,0.91667,-13,-50.33,1.86E+08
20024,3.0556,-11.265,-48.672,1.73E+08
20025,2.1074,-12.017,-46.254,1.71E+08
20026,1.8531,-10.704,-50.408,1.76E+08
20027,1.0902,-10.627,-47.81,1.72E+08
20028,-4.34E-16,-17.477,-42.871,1.08E+08
20029,-0.74862,-15.731,-43.388,1.54E+08
20030,-3.2113,-16.181,-42.124,1.06E+08
20031,-0.58448,-17.547,-41.738,1.01E+08
20032,-2.8301,-17.674,-41.451,1.06E+08
20033,-0.92383,-15.057,-41.259,9.70E+07
20034,1.0847,-15.731,-43.388,1.47E+08
20035,1.2489,-17.547,-41.738,9.47E+07
20036,2.9555,-17.707,-41.498,9.92E+07
20037,3.6518,-16.569,-42.493,1.04E+08
20038,-6.8858,-13.926,-47.843,1.61E+08
20039,-7,-14.732,-46.589,1.38E+08
20040,-7,-14.5,-49.916,1.11E+08
20041,-7,-16.5,-47.866,1.10E+08
20042,-6.9821,-14.371,-46.977,1.50E+08
20043,-8.1531,-13.829,-48.263,1.19E+08
20044,-8.3553,-15.341,-47.342,1.11E+08
20045,-8.0216,-15.907,-49.922,9.28E+07
20046,-6.8858,-13.926,-51.989,1.55E+08
20047,-6.074,-13.114,-50.33,2.21E+08
20048,-6.8858,-13.926,-49.916,1.59E+08
20049,-6.7798,-13.808,-46.97,1.98E+08
20050,-6.9402,-12.281,-47.067,1.77E+08
20051,-7.9334,-13.299,-48.263,1.80E+08
20052,-6.0103,-11.68,-48.425,1.87E+08
20053,-8.1877,-12.706,-50.057,1.70E+08
20054,-7.8101,-12.94,-50.655,1.66E+08
20055,-6.8858,-17.574,-43.792,2.36E+08
20056,-7,-16.411,-44.725,2.05E+08
20057,-7,-18.067,-46.126,1.80E+08
20058,-6.9731,-16.517,-44.363,2.27E+08
20059,-7.7636,-17.724,-43.827,1.78E+08
20060,-7.6922,-18.029,-45.053,1.97E+08
20061,-6.7479,-16.448,-43.798,2.39E+08
20062,-7.5439,-17.668,-43.299,1.84E+08
20063,-6.5414,-17.802,-42.329,2.01E+08
20064,-6.8472,-16.673,-42.783,1.88E+08
20065,-7,-16.949,-46.695,1.34E+08
20066,-6.9742,-14.821,-45.803,1.71E+08
20067,-6.9446,-15.395,-44.936,1.87E+08
20068,-8.3553,-15.791,-46.171,1.35E+08
20069,-7.7636,-16.606,-44.396,1.36E+08
20070,-7.6922,-16.911,-45.622,1.52E+08
20071,-7.633,-14.366,-44.516,1.28E+08
20072,-8.5116,-15.481,-44.026,1.15E+08
20073,-2.3876,39.146,-64.633,8.43E+05
20074,-5.25,39.983,-64.067,9.23E+05
20075,-3.6519,38.519,-63.265,5.87E+05
20076,-1.6142,36.181,-63.667,2.86E+06
20077,-3.1215,37.992,-63.21,7.82E+05
20078,17.112,39.146,-64.633,1.10E+06
20079,17.886,36.409,-63.691,1.94E+06
20080,16.36,37.947,-63.05,1.66E+06
20081,14.25,39.983,-64.067,1.59E+06
20082,15.829,38.474,-63.106,1.56E+06
20083,2.3876,39.146,-64.633,1.51E+06
20084,5.25,39.983,-64.067,1.03E+06
20085,3.7643,38.755,-63.385,6.71E+05
20086,1.6142,36.431,-63.694,4.28E+06
20087,1.9046,35.247,-64.023,5.57E+06
20088,3.2339,38.228,-63.33,1.09E+06
20089,-17.074,40.043,-63.496,1.32E+06
20090,-16.5,39.983,-64.067,9.08E+05
20091,-16.5,40.379,-61.395,2.54E+06
20092,-14.25,40.157,-63.508,1.41E+06
20093,-15.99,39.111,-62.923,1.21E+06
20094,-17.886,39.236,-63.411,1.50E+06
20095,-17.886,38.605,-63.922,1.23E+06
20096,-18,38.887,-61.238,7.24E+05
20097,-18,36.469,-63.121,1.17E+06
20098,-16.74,38.365,-62.844,1.69E+06
20099,-17.112,39.819,-64.088,1.02E+06
20100,-17.725,39.21,-64.024,9.98E+05
20101,-17.074,40.265,-61.383,2.60E+06
20102,-17.886,39.458,-61.298,1.00E+06
20103,-17.886,39.68,-59.185,2.62E+06
20104,-16.749,39.216,-61.062,1.28E+06
20105,-16.52,38.892,-62.9,1.39E+06
20106,-17.112,39.146,-64.633,7.11E+05
20107,-14.25,39.983,-64.067,1.27E+06
20108,-15.99,38.837,-63.427,1.10E+06
20109,-17.886,36.409,-63.691,1.14E+06
20110,-16.52,38.309,-63.372,1.25E+06
20111,-1.5,27.59,-51.945,3.60E+07
20112,-1.5,27.59,-56.283,1.39E+07
20113,-3.5625,27.095,-54.114,2.75E+07
20114,-1.5,25.829,-55.855,5.08E+07
20115,-1.5,26.051,-53.742,5.07E+07
20116,-1.5,26.273,-51.628,6.61E+07
20117,-3.1889,25.328,-54.351,4.60E+07
20118,-3.062,26.839,-56.656,2.56E+07
20119,-1.5,30.982,-49.239,2.80E+07
20120,-3.5625,27.59,-51.945,3.62E+07
20121,-1.5,29.861,-47.815,2.73E+07
20122,-1.5,27.215,-49.674,8.70E+07
20123,-3.2455,26.512,-49.73,6.09E+07
20124,-4.1859,30.216,-49.48,3.00E+07
20125,-5.1981,28.671,-50.47,2.61E+07
20126,-2.9607,28.219,-48.217,4.97E+07
20127,-1.5,35.212,-50.205,1.11E+07
20128,-1.5,31.976,-47.332,1.43E+07
20129,-1.5,34.4,-47.587,1.05E+07
20130,-4.1859,32.412,-49.124,1.32E+07
20131,-3.7233,34.503,-49.732,9.89E+06
20132,-3.2124,34.075,-48.269,9.08E+06
20133,-1.5,37.095,-54.114,7.90E+06
20134,-1.5,36.096,-48.94,8.11E+06
20135,-3.7233,36.166,-51.211,8.39E+06
20136,-4.2739,37.026,-53.286,6.28E+06
20137,-4.1719,38.949,-52.296,5.54E+06
20138,-3.2124,35.772,-49.622,7.85E+06
20139,-2.8886,37.875,-49.785,5.23E+06
20140,-1.5,35.212,-58.023,9.52E+06
20141,-4.2739,36.896,-55.508,4.43E+06
20142,-3.9698,35.748,-57.527,6.49E+06
20143,-3.1585,37.19,-57.105,5.15E+06
20144,-1.5,30.982,-58.989,1.31E+07
20145,-1.5,33.512,-60.915,8.25E+06
20146,-1.5,31.088,-60.66,1.57E+07
20147,-3.9698,33.906,-58.774,9.84E+06
20148,-4.2558,31.643,-59.094,1.42E+07
20149,-2.8908,32.328,-60.255,1.05E+07
20150,-2.9019,35.318,-60.501,6.39E+06
20151,-3.1585,35.494,-58.458,8.00E+06
20152,-3.5625,27.59,-56.283,2.93E+07
20153,-1.5,26.548,-59.923,6.07E+07
20154,-1.5,28.972,-60.178,1.76E+07
20155,-1.5,26.77,-57.81,5.02E+07
20156,-4.2558,29.527,-58.404,1.63E+07
20157,-3.062,27.78,-58.611,2.47E+07
20158,-2.8908,30.213,-59.772,1.27E+07
20159,-15.937,27.095,-54.114,8.56E+06
20160,-18,27.59,-56.283,1.07E+07
20161,-18,27.59,-51.945,5.55E+06
20162,-18,25.449,-55.603,1.47E+07
20163,-18,25.828,-52.888,9.45E+06
20164,-7.6875,27.095,-54.114,5.74E+07
20165,-3.5625,26.051,-53.742,5.85E+07
20166,-3.5625,26.273,-51.628,6.66E+07
20167,-5.2514,25.328,-54.351,7.93E+07
20168,-5.308,25.571,-51.685,9.29E+07
20169,-6.3183,27.92,-56.866,4.58E+07
20170,-7.2606,27.429,-52.316,5.84E+07
20171,-7.8055,25.776,-52.627,6.22E+07
20172,-5.1245,26.839,-56.656,5.27E+07
20173,-6.9717,26.034,-55.331,5.92E+07
20174,-11.812,27.095,-54.114,3.36E+07
20175,-8.3808,27.92,-56.866,3.74E+07
20176,-9.3231,27.429,-52.316,5.32E+07
20177,-10.889,27.32,-52.629,3.98E+07
20178,-11.653,24.702,-54.254,4.91E+07
20179,-9.868,25.776,-52.627,6.13E+07
20180,-9.5704,26.771,-56.965,4.36E+07
20181,-9.0342,26.034,-55.331,5.40E+07
20182,-11.673,25.949,-56.028,3.77E+07
20183,-15.937,27.59,-56.283,1.33E+07
20184,-15.937,27.59,-51.945,1.02E+07
20185,-10.443,27.92,-56.866,1.78E+07
20186,-12.951,27.32,-52.629,2.49E+07
20187,-15.937,25.449,-55.603,1.62E+07
20188,-15.937,25.828,-52.888,1.05E+07
20189,-13.715,24.702,-54.254,4.36E+07
20190,-14.078,26.923,-50.963,2.44E+07
20191,-11.93,25.776,-52.627,4.71E+07
20192,-11.633,26.771,-56.965,2.51E+07
20193,-14.367,24.925,-51.606,3.66E+07
20194,-13.736,25.949,-56.028,2.69E+07
20195,-18,30.982,-58.989,9.64E+06
20196,-18,27.232,-59.995,9.74E+06
20197,-18,29.429,-60.226,8.77E+06
20198,-12.506,29.527,-58.404,1.01E+07
20199,-15.244,30.414,-58.823,8.02E+06
20200,-18,26.391,-57.558,1.91E+07
20201,-15.86,28.423,-59.437,1.13E+07
20202,-13.695,27.713,-58.919,1.58E+07
20203,-15.798,26.89,-57.982,2.18E+07
20204,-18,35.212,-58.023,8.51E+06
20205,-18,36.158,-59.057,6.09E+06
20206,-18,31.544,-60.708,9.24E+06
20207,-18,33.74,-60.939,6.75E+06
20208,-15.244,32.624,-59.086,8.67E+06
20209,-15.792,34.553,-58.468,7.83E+06
20210,-16.596,33.846,-60.357,6.76E+06
20211,-18,37.095,-54.114,6.31E+06
20212,-18,37.854,-57.704,4.62E+06
20213,-18,38.076,-55.591,6.44E+06
20214,-15.792,36.198,-56.97,6.98E+06
20215,-15.312,37.031,-54.909,5.25E+06
20216,-16.969,37.656,-57.472,4.53E+06
20217,-18,35.212,-50.205,6.10E+06
20218,-18,38.076,-53.421,6.05E+06
20219,-18,38.299,-51.308,4.40E+06
20220,-18,36.324,-48.964,4.87E+06
20221,-15.312,36.887,-52.689,4.40E+06
20222,-15.967,35.901,-50.871,6.44E+06
20223,-16.61,35.535,-49.554,5.18E+06
20224,-16.599,37.784,-49.87,3.53E+06
20225,-16.885,37.939,-50.995,4.05E+06
20226,-18,30.982,-49.239,5.93E+06
20227,-18,34.628,-47.611,3.91E+06
20228,-18,32.432,-47.38,6.81E+06
20229,-15.967,34.117,-49.541,6.91E+06
20230,-15.181,32.153,-49.114,1.13E+07
20231,-16.864,31.83,-47.808,9.09E+06
20232,-16.61,33.839,-48.202,5.43E+06
20233,-18,30.317,-47.863,7.18E+06
20234,-18,28.121,-47.632,1.44E+07
20235,-15.181,29.978,-49.584,1.16E+07
20236,-15.014,28.437,-50.705,1.81E+07
20237,-18,26.77,-50.934,1.18E+07
20238,-18,26.682,-49.194,1.86E+07
20239,-16.14,27.864,-49.009,1.82E+07
20240,-16.864,29.715,-48.29,9.53E+06
20241,-17.886,41.013,-46.505,9.01E+05
20242,-18,40.22,-48.558,5.77E+05
20243,-17.886,40.502,-45.874,1.01E+06
20244,-18,38.246,-46.214,1.77E+06
20245,-16.599,39.705,-47.12,7.07E+05
20246,-17.074,41.82,-46.589,8.15E+05
20247,-16.5,41.712,-48.715,1.58E+06
20248,-16.5,41.88,-46.019,6.74E+05
20249,-14.25,41.934,-46.601,1.20E+06
20250,-15.849,40.451,-47.198,7.29E+05
20251,-17.074,41.598,-48.703,1.58E+06
20252,-17.886,40.569,-50.731,2.51E+06
20253,-17.886,40.791,-48.618,7.15E+05
20254,-17.725,41.115,-45.9,7.86E+05
20255,-17.112,41.724,-45.964,6.20E+05
20256,-16.379,40.232,-47.176,7.21E+05
20257,-16.665,40.388,-48.3,6.33E+05
20258,-16.5,41.267,-52.941,3.77E+06
20259,-17.561,40.83,-52.895,3.55E+06
20260,-14.25,41.712,-48.715,2.32E+06
20261,-14.562,39.271,-52.148,2.37E+06
20262,-13.969,41.471,-51.004,4.26E+06
20263,-15.849,40.229,-49.312,1.85E+06
20264,-16.135,40.384,-50.437,2.22E+06
20265,-16.5,40.823,-57.168,4.43E+06
20266,-17.561,40.608,-55.009,5.07E+06
20267,-15.042,38.369,-56.32,4.47E+06
20268,-14.562,39.049,-54.262,3.60E+06
20269,-13.125,41.045,-55.055,6.65E+06
20270,-13.969,40.842,-56.992,5.35E+06
20271,-13.969,41.249,-53.118,5.32E+06
20272,-16.219,39.879,-56.858,3.71E+06
20273,-16.135,40.162,-52.55,3.33E+06
20274,-17.561,40.386,-57.122,3.97E+06
20275,-14.25,40.379,-61.395,2.89E+06
20276,-15.042,38.147,-58.433,3.25E+06
20277,-13.969,40.62,-59.105,4.78E+06
20278,-16.219,39.657,-58.971,3.11E+06
20279,-15.99,39.333,-60.809,2.65E+06
20280,-18,39.331,-57.011,3.61E+06
20281,-18,36.691,-61.007,2.30E+06
20282,-15.792,37.401,-58.355,3.61E+06
20283,-16.596,36.797,-60.425,2.36E+06
20284,-16.969,38.911,-58.893,2.00E+06
20285,-16.74,38.587,-60.731,1.17E+06
20286,-18,39.776,-52.785,3.85E+06
20287,-15.792,37.623,-56.242,5.39E+06
20288,-15.312,38.303,-54.183,4.13E+06
20289,-16.969,39.133,-56.779,3.83E+06
20290,-16.885,39.416,-52.472,3.52E+06
20291,-18,38.024,-48.327,2.54E+06
20292,-16.599,39.483,-49.233,1.14E+06
20293,-16.885,39.638,-50.358,1.74E+06
20294,-6.9366,-14.069,-56.748,1.55E+08
20295,-6.5607,-13.439,-54.475,1.49E+08
20296,-7,-14.5,-54.062,1.09E+08
20297,-7,-16.181,-54.47,6.45E+07
20298,-7.1142,-14.855,-56.586,8.46E+07
20299,-7.0263,-15.757,-55.374,6.34E+07
20300,-8.7318,-14.924,-54.47,9.68E+07
20301,-7.9678,-14.388,-56.567,9.36E+07
20302,-8.0298,-13.47,-54.8,9.42E+07
20303,-6.2077,-13.18,-57.656,1.82E+08
20304,-5.5,-13,-55.302,2.20E+08
20305,-3.6667,-13,-57.788,1.42E+08
20306,-5.5,-12.93,-58.243,1.77E+08
20307,-6.3538,-13.221,-57.95,1.65E+08
20308,-5.5552,-12.426,-57.708,1.72E+08
20309,-6.1694,-13.158,-55.048,1.98E+08
20310,-7.1077,-14.358,-57.111,1.27E+08
20311,-6.8529,-13.668,-57.743,1.79E+08
20312,-7.8167,-13.937,-57.139,1.42E+08
20313,-6.1541,-12.725,-57.454,1.71E+08
20314,-7.8787,-13.019,-55.373,1.43E+08
20315,-3.6667,-13,-55.302,1.52E+08
20316,-2.75,-13,-52.816,1.86E+08
20317,-5.0973,-11.153,-54.324,1.90E+08
20318,-4.1571,-11.073,-52.407,1.95E+08
20319,-5.4799,-11.46,-50.912,1.96E+08
20320,-7.6573,-12.486,-52.543,1.82E+08
20321,-5.5552,-12.426,-55.221,1.85E+08
20322,-7.2798,-12.72,-53.141,1.79E+08
20323,-7,-16.5,-49.939,9.55E+07
20324,-7,-15.974,-52.23,6.94E+07
20325,-8.1531,-13.829,-50.336,1.16E+08
20326,-8.7318,-14.924,-52.397,1.01E+08
20327,-8.4073,-13.236,-52.13,1.05E+08
20328,-8.0216,-15.907,-51.995,8.57E+07
20329,-8.0298,-13.47,-52.728,1.01E+08
20330,3.6667,-13,-57.788,2.26E+08
20331,5.5,-13,-55.302,2.94E+08
20332,6.5607,-13.439,-56.962,2.37E+08
20333,6.2077,-13.18,-57.656,2.94E+08
20334,5.5,-12.93,-58.243,2.95E+08
20335,6.3538,-13.221,-57.95,2.75E+08
20336,4.6388,-11.632,-57.342,2.61E+08
20337,6.2121,-12.233,-57.548,2.41E+08
20338,4.34E-16,-13,-57.788,1.00E+08
20339,3.6667,-13,-55.302,1.82E+08
20340,3.6667,-12.93,-58.243,1.75E+08
20341,0.91667,-13,-55.302,1.37E+08
20342,0.79439,-11.217,-57.124,1.35E+08
20343,2.8054,-11.632,-57.342,1.43E+08
20344,-3.6667,-12.93,-58.243,1.07E+08
20345,-0.91667,-13,-55.302,1.29E+08
20346,-3.264,-11.153,-56.81,1.21E+08
20347,-1.0389,-11.217,-57.124,1.23E+08
20348,-3.7219,-12.426,-57.708,1.09E+08
20349,6.5607,-13.439,-54.475,2.01E+08
20350,6.5607,-13.439,-52.403,1.83E+08
20351,2.75,-13,-52.816,1.96E+08
20352,6.3646,-9.9635,-54.242,2.14E+08
20353,4.6388,-11.632,-54.856,2.20E+08
20354,6.2121,-12.233,-55.062,1.98E+08
20355,4.8889,-11.265,-51.158,1.99E+08
20356,7.0699,-11.74,-53.229,1.94E+08
20357,3.6865,-10.704,-52.894,2.10E+08
20358,7.4143,-12.837,-51.607,1.91E+08
20359,6.68,-11.885,-50.571,1.87E+08
20360,6.9366,-14.069,-56.748,2.41E+08
20361,7,-14.5,-54.062,1.74E+08
20362,7,-16.181,-54.47,9.61E+07
20363,7.1142,-14.855,-56.586,1.37E+08
20364,7.0718,-15.825,-55.561,1.06E+08
20365,6.9621,-12.983,-56.722,1.68E+08
20366,8,-13.968,-56.336,1.65E+08
20367,8.6772,-14.744,-54.827,1.47E+08
20368,7.8199,-12.49,-54.888,1.50E+08
20369,7.1077,-14.358,-57.111,1.82E+08
20370,6.8529,-13.668,-57.743,2.64E+08
20371,6.811,-12.532,-57.294,2.20E+08
20372,7.8489,-13.517,-56.909,2.19E+08
20373,7,-16.5,-49.939,7.12E+07
20374,7,-15.974,-52.23,7.75E+07
20375,8.6772,-14.744,-52.754,1.25E+08
20376,8.1174,-16.139,-50.505,9.42E+07
20377,7.8199,-12.49,-52.816,1.31E+08
20378,8.1643,-13.587,-51.193,1.27E+08
20379,-64.082,-6.25,75.369,2.57E+07
20380,-63.709,-6.839,77.498,2.29E+07
20381,-63.872,-7.1376,73.762,3.33E+07
20382,-65.509,-8.1389,73.534,2.30E+07
20383,-66.136,-8.0599,75.35,2.41E+07
20384,-65.575,-8.1626,77.298,2.34E+07
20385,-63.709,-5.089,77.498,2.30E+07
20386,-63.812,-3.8802,77.188,3.06E+07
20387,-63.872,-5.3876,73.762,3.53E+07
20388,-65.897,-3.99,73.897,2.32E+07
20389,-65.509,-6.3889,73.534,2.33E+07
20390,-66.136,-6.3099,75.35,2.41E+07
20391,-65.673,-3.7101,76.487,2.56E+07
20392,-65.575,-6.4126,77.298,2.28E+07
20393,9.75,40.157,-63.508,2.48E+06
20394,8.7088,39.983,-64.067,2.31E+06
20395,7.7812,40.397,-61.219,5.91E+06
20396,6.0143,39.029,-62.881,1.86E+06
20397,8.3495,38.985,-62.771,2.86E+06
20398,10.959,39.983,-64.067,2.31E+06
20399,10.031,40.397,-61.219,5.99E+06
20400,12.289,40.477,-60.46,6.57E+06
20401,13.579,38.748,-62.601,2.13E+06
20402,10.599,38.985,-62.771,2.91E+06
20403,9.75,41.934,-46.601,3.31E+06
20404,14.25,41.88,-46.019,1.48E+06
20405,10.031,41.693,-48.891,6.32E+06
20406,12.328,41.616,-49.625,6.54E+06
20407,11.076,39.677,-47.397,3.72E+06
20408,13.796,40.673,-46.961,2.08E+06
20409,5.25,41.88,-46.019,2.13E+06
20410,7.7812,41.693,-48.891,6.65E+06
20411,8.8257,39.677,-47.397,3.99E+06
20412,6.0762,40.543,-47.133,3.03E+06
20413,17.112,41.179,-45.291,1.01E+06
20414,17.886,38.306,-45.643,2.86E+06
20415,16.577,39.983,-46.355,6.69E+05
20416,16.046,40.51,-46.41,5.56E+05
20417,18,14.506,-60.812,7.12E+07
20418,18,12.532,-58.468,1.56E+08
20419,17.952,12.271,-60.954,9.62E+07
20420,16.544,13.163,-59.957,8.40E+07
20421,17.576,11.344,-60.376,9.33E+07
20422,18.717,12.024,-61.033,6.28E+07
20423,18,32.076,-62.659,1.14E+07
20424,16.607,33.184,-61.767,8.48E+06
20425,16.579,35.806,-62.292,3.21E+06
20426,18,27.684,-62.197,1.70E+07
20427,17.873,28.755,-62.918,1.82E+07
20428,16.607,30.987,-61.536,1.42E+07
20429,17.17,28.511,-61.356,1.54E+07
20430,18,23.291,-61.736,9.25E+06
20431,17.873,26.559,-62.687,1.76E+07
20432,18,25.041,-59.888,1.13E+07
20433,16.505,24.166,-61.263,2.07E+07
20434,17.17,26.315,-61.125,1.45E+07
20435,18,18.899,-61.274,3.34E+07
20436,17.873,19.97,-61.995,8.27E+06
20437,18,22.845,-59.657,1.41E+07
20438,18,20.362,-59.326,3.58E+07
20439,16.505,21.97,-61.032,1.82E+07
20440,16.807,19.75,-61.275,2.26E+07
20441,18,14.729,-58.699,1.29E+08
20442,17.952,14.467,-61.185,7.36E+07
20443,17.873,17.774,-61.764,3.24E+07
20444,18,18.166,-59.095,6.36E+07
20445,16.544,15.36,-60.188,6.22E+07
20446,16.807,17.554,-61.044,3.90E+07
20447,18,16.283,-43.905,2.21E+08
20448,18,13.865,-45.788,2.66E+08
20449,17.886,14.147,-43.104,3.03E+08
20450,16.65,14.94,-44.404,2.57E+08
20451,17.531,13.061,-43.62,2.86E+08
20452,18.5,14.079,-43.748,1.81E+08
20453,18,20.676,-44.367,1.43E+08
20454,18,16.061,-46.019,2.03E+08
20455,17.886,16.343,-43.335,2.36E+08
20456,18,19.499,-46.415,1.46E+08
20457,16.65,17.136,-44.635,1.84E+08
20458,16.244,19.874,-45.08,1.39E+08
20459,18,25.068,-44.829,6.35E+07
20460,18,24.178,-46.977,5.74E+07
20461,18,21.695,-46.646,9.36E+07
20462,16.244,22.07,-45.311,9.56E+07
20463,15.91,25.092,-45.873,5.71E+07
20464,18,29.461,-45.29,2.53E+07
20465,18,26.374,-47.208,3.06E+07
20466,15.91,27.288,-46.103,3.28E+07
20467,18,33.853,-45.752,9.62E+06
20468,15.91,29.484,-46.334,2.38E+07
20469,16.274,32.925,-46.422,1.21E+07
20470,16.274,35.121,-46.653,6.84E+06
20471,16.642,36.888,-48.26,4.34E+06
20472,16.796,37.731,-46.652,2.61E+06
20473,18,12.977,-54.241,2.51E+08
20474,18,15.109,-54.495,1.67E+08
20475,18,16.192,-56.751,1.32E+08
20476,18.365,11.063,-54.12,2.23E+08
20477,16.116,13.338,-54.053,1.88E+08
20478,16.544,13.386,-57.843,1.42E+08
20479,18.491,10.934,-56.338,2.01E+08
20480,15.219,12.692,-56.246,1.87E+08
20481,15.167,15.039,-56.083,1.50E+08
20482,17.576,11.566,-58.262,1.52E+08
20483,18,13.421,-50.015,2.69E+08
20484,18,15.331,-52.381,1.99E+08
20485,18.365,11.285,-52.006,2.54E+08
20486,16.116,13.56,-51.94,2.26E+08
20487,18,15.553,-50.268,1.84E+08
20488,18,17.08,-48.298,1.63E+08
20489,15.564,13.211,-46.998,2.36E+08
20490,17.346,11.79,-47.608,2.40E+08
20491,18.365,11.507,-49.893,2.36E+08
20492,16.116,13.783,-49.826,2.05E+08
20493,16.65,14.718,-46.518,2.27E+08
20494,17.531,12.838,-45.734,2.60E+08
20495,18.381,13.329,-48.219,2.31E+08
20496,15.405,15.811,-48.301,1.99E+08
20497,-17.112,41.179,-45.291,7.66E+05
20498,-17.886,38.306,-45.643,2.11E+06
20499,-16.379,39.76,-46.593,5.93E+05
20500,-14.25,41.88,-46.019,1.17E+06
20501,-15.849,40.288,-46.648,5.80E+05
20502,-9.75,41.934,-46.601,2.69E+06
20503,-5.25,41.88,-46.019,1.88E+06
20504,-9.4688,41.693,-48.891,4.10E+06
20505,-7.1719,41.616,-49.625,4.86E+06
20506,-8.6176,40.044,-47.738,2.49E+06
20507,-5.8886,40.542,-47.114,2.27E+06
20508,-11.719,41.693,-48.891,3.79E+06
20509,-10.868,40.044,-47.738,2.14E+06
20510,-13.599,40.451,-47.198,1.74E+06
20511,-9.75,40.157,-63.508,1.89E+06
20512,-10.791,39.983,-64.067,1.88E+06
20513,-11.719,40.397,-61.219,3.74E+06
20514,-11.317,38.821,-62.702,1.83E+06
20515,-13.74,39.111,-62.923,1.51E+06
20516,-8.5412,39.983,-64.067,1.93E+06
20517,-9.4688,40.397,-61.219,3.49E+06
20518,-7.2109,40.477,-60.46,4.01E+06
20519,-9.0671,38.821,-62.702,1.79E+06
20520,-5.9019,38.793,-62.761,1.48E+06
20521,-2.3876,41.179,-45.291,8.25E+05
20522,-3.6386,40.379,-46.563,1.69E+06
20523,-3.1083,39.852,-46.508,1.77E+06
20524,-1.5,26.544,-62.077,5.89E+07
20525,-1.5,24.341,-59.709,9.88E+07
20526,-1.6183,24.038,-62.401,1.11E+08
20527,-2.5284,23.918,-61.47,7.80E+07
20528,-3.062,25.351,-60.51,6.87E+07
20529,-1.5,31.392,-62.587,1.19E+07
20530,-2.8908,32.632,-62.182,5.87E+06
20531,-2.9019,35.623,-62.428,2.53E+06
20532,-3.062,27.776,-60.765,2.06E+07
20533,-2.8908,30.208,-61.927,1.30E+07
20534,-1.5,28.321,-45.171,6.31E+07
20535,-1.5,25.674,-47.029,1.28E+08
20536,-1.6183,25.937,-44.333,1.33E+08
20537,-2.653,25.619,-44.93,1.11E+08
20538,-2.9607,26.679,-45.573,8.93E+07
20539,-1.5,33.169,-45.68,1.08E+07
20540,-1.5,28.098,-47.284,5.73E+07
20541,-4.1859,31.177,-47.281,1.21E+07
20542,-3.8096,31.048,-44.703,1.46E+07
20543,-2.9607,29.103,-45.828,3.79E+07
20544,-3.2124,32.844,-46.362,9.44E+06
20545,-3.2124,35.269,-46.617,5.80E+06
20546,-2.8886,37.372,-46.78,4.09E+06
20547,-1.5,24.786,-55.483,9.15E+07
20548,-2.5284,24.141,-59.356,7.49E+07
20549,-3.2556,24.233,-56.11,7.43E+07
20550,-3.8072,23.82,-57.787,6.08E+07
20551,-3.062,25.573,-58.397,6.45E+07
20552,-1.5,25.23,-51.256,1.06E+08
20553,-3.2556,24.456,-53.997,7.83E+07
20554,-3.3185,24.711,-51.331,8.58E+07
20555,-2.653,25.397,-47.044,1.06E+08
20556,-3.3185,24.933,-49.218,8.93E+07
20557,-2.9607,26.457,-47.686,8.38E+07
20558,1.5,26.544,-62.077,6.83E+07
20559,1.5,24.341,-59.709,1.02E+08
20560,1.6183,24.038,-62.401,1.14E+08
20561,2.5233,23.923,-61.438,7.97E+07
20562,2.8763,24.987,-61.094,7.88E+07
20563,1.5,31.643,-62.613,1.81E+07
20564,1.5,26.766,-59.964,5.13E+07
20565,1.6447,26.44,-62.64,6.56E+07
20566,1.6351,30.452,-63.004,1.89E+07
20567,3.8096,29.114,-63.102,1.95E+07
20568,4.2166,28.827,-61.435,1.68E+07
20569,2.8763,27.411,-61.349,2.95E+07
20570,3.177,30.889,-61.675,1.98E+07
20571,1.5958,33.125,-63.3,7.46E+06
20572,3.177,33.564,-61.956,7.51E+06
20573,3.0143,36.11,-62.574,3.82E+06
20574,1.5,25.674,-47.029,1.33E+08
20575,1.5,28.321,-45.171,6.62E+07
20576,1.6183,25.937,-44.333,1.45E+08
20577,2.5283,25.634,-45.148,1.23E+08
20578,3.2176,26.724,-46.449,9.22E+07
20579,1.5,24.786,-55.483,1.00E+08
20580,2.5233,24.145,-59.325,7.19E+07
20581,3.6986,23.937,-57.155,6.25E+07
20582,2.8763,25.209,-58.98,6.93E+07
20583,1.5,25.23,-51.256,1.17E+08
20584,3.6986,24.159,-55.042,7.45E+07
20585,3.767,24.38,-52.642,8.15E+07
20586,1.5,28.098,-47.284,5.73E+07
20587,2.5283,25.412,-47.261,1.11E+08
20588,3.767,24.602,-50.529,8.39E+07
20589,3.712,24.85,-48.412,9.39E+07
20590,3.2176,26.502,-48.562,8.09E+07
20591,1.5,33.169,-45.68,1.86E+07
20592,2.9205,35.127,-46.759,9.66E+06
20593,3.0762,37.372,-46.8,5.56E+06
20594,3.2176,29.148,-46.703,4.16E+07
20595,2.9205,32.703,-46.505,1.83E+07
20596,3.5956,31.009,-46.1,2.19E+07
20597,2.3876,41.179,-45.291,9.43E+05
20598,3.2958,39.852,-46.527,2.23E+06
20599,3.8262,40.38,-46.583,2.15E+06
20600,35.643,-11.838,-51.305,1.91E+07
20601,33.907,-11.919,-51.398,2.18E+07
20602,32.991,-13.781,-51.664,2.74E+07
20603,35.764,-14.153,-51.669,1.86E+07
20604,36.114,-13.289,-54.386,1.52E+07
20605,33.401,-13.776,-53.399,2.25E+07
20606,33.648,-12.811,-51.331,3.09E+07
20607,35.882,-12.31,-53.957,1.92E+07
20608,37.5,-13.517,-34.391,1.19E+08
20609,35.643,-11.838,-31.305,1.03E+08
20610,33.907,-11.919,-31.398,1.06E+08
20611,33.054,-14.199,-32.771,1.22E+08
20612,35.109,-13.294,-34.987,1.23E+08
20613,35.773,-14.56,-32.758,1.20E+08
20614,35.8,-13.122,-31.123,1.41E+08
20615,35.706,-14.794,-35.084,1.10E+08
20616,33.438,-14.244,-34.696,1.21E+08
20617,33.418,-13.255,-31.562,1.36E+08
20618,7,-18.233,-50.24,1.32E+07
20619,7.1142,-19.074,-47.889,9.78E+06
20620,7.0456,-18.812,-48.978,1.14E+07
20621,7.8028,-18.373,-46.911,1.41E+07
20622,8.1174,-18.139,-48.455,1.28E+07
20623,7.0718,-17.344,-53.614,2.61E+07
20624,7.0456,-18.294,-51.371,1.26E+07
20625,7.0525,-17.907,-52.418,1.79E+07
20626,8.6772,-16.217,-52.995,5.10E+07
20627,8.1174,-17.613,-50.746,1.97E+07
20628,-7,-18.233,-50.24,8.54E+07
20629,-7.1142,-19.074,-47.889,1.13E+08
20630,-7.0265,-18.709,-49.129,9.91E+07
20631,-8.3553,-17.341,-47.365,1.03E+08
20632,-7.6922,-18.462,-46.816,1.26E+08
20633,-8.0216,-17.907,-49.944,8.73E+07
20634,-7.0265,-18.159,-51.495,6.85E+07
20635,-7.0263,-17.236,-53.447,4.51E+07
20636,-8.7318,-16.398,-52.638,7.11E+07
20637,-8.0216,-17.381,-52.236,6.08E+07
20638,-2.7486,23.795,-61.996,8.63E+07
20639,17.687,12.194,-61.688,7.26E+07
20640,16.45,13.126,-60.318,8.44E+07
20641,17.483,11.306,-60.736,1.02E+08
20642,18.624,11.986,-61.394,5.67E+07
20643,2.7435,23.8,-61.965,7.86E+07
20644,1.9109,27.93,-63.26,5.22E+07
20645,3.1023,24.887,-61.623,7.73E+07
20646,-18,18.899,-61.274,7.13E+07
20647,-18,17.564,-59.063,1.08E+08
20648,-16.817,15.327,-60.332,1.10E+08
20649,-16.462,17.765,-60.22,7.91E+07
20650,-18,23.291,-61.736,1.88E+07
20651,-18,22.45,-59.298,2.99E+07
20652,-18,19.76,-59.293,6.79E+07
20653,-16.462,19.961,-60.451,5.10E+07
20654,-16.319,22.164,-61.205,2.72E+07
20655,-18,27.684,-62.197,4.69E+06
20656,-18,24.646,-59.529,1.49E+07
20657,-16.319,24.361,-61.435,1.88E+07
20658,-15.86,26.678,-61.409,7.46E+06
20659,-15.798,25.145,-59.954,1.90E+07
20660,-18,32.076,-62.659,5.63E+06
20661,-15.244,30.956,-60.771,7.24E+06
20662,-15.86,28.874,-61.639,9.74E+06
20663,-16.596,32.183,-62.077,5.32E+06
20664,-16.596,34.379,-62.308,3.10E+06
20665,-16.74,36.169,-62.614,1.62E+06
20666,-18,33.853,-45.752,4.81E+06
20667,-17.886,35.097,-45.306,2.75E+06
20668,-16.61,35.26,-46.574,3.04E+06
20669,-16.599,37.509,-46.889,1.62E+06
20670,-18,29.461,-45.29,1.34E+07
20671,-17.886,32.9,-45.075,5.22E+06
20672,-17.886,30.704,-44.844,1.08E+07
20673,-16.864,31.055,-45.949,9.32E+06
20674,-16.61,33.064,-46.343,5.98E+06
20675,-18,25.068,-44.829,4.21E+07
20676,-17.886,28.508,-44.613,1.93E+07
20677,-17.886,26.312,-44.382,3.38E+07
20678,-18,25.826,-46.621,2.63E+07
20679,-16.14,27.008,-46.436,2.22E+07
20680,-16.864,28.859,-45.718,1.59E+07
20681,-16.972,26.072,-45.214,3.42E+07
20682,-18,20.676,-44.367,1.02E+08
20683,-17.886,24.115,-44.151,5.33E+07
20684,-17.886,21.919,-43.921,8.13E+07
20685,-18,20.997,-47.028,7.92E+07
20686,-18,23.629,-46.391,4.59E+07
20687,-16.616,21.551,-44.955,7.81E+07
20688,-16.972,23.876,-44.983,5.25E+07
20689,-16.43,22.814,-46.848,5.22E+07
20690,-17.886,19.723,-43.69,1.21E+08
20691,-18,18.801,-46.797,1.19E+08
20692,-16.859,17.066,-44.378,1.41E+08
20693,-16.616,19.355,-44.725,1.12E+08
20694,-16.864,17.366,-46.644,1.30E+08
20695,-7.246,-19.248,-49.192,9.48E+07
20696,-7.9119,-18.992,-46.816,1.24E+08
20697,-8.2412,-18.438,-49.944,8.48E+07
20698,-7.4151,-14.38,-57.636,1.05E+08
20699,-8.9515,-15.252,-54.887,7.93E+07
20700,-8.1875,-14.717,-56.983,7.39E+07
20701,-6.3482,-13.064,-58.346,1.42E+08
20702,-5.5552,-12.289,-58.141,1.44E+08
20703,6.3482,-13.064,-58.346,2.31E+08
20704,4.6388,-11.494,-57.775,2.15E+08
20705,6.2121,-12.095,-57.981,1.94E+08
20706,7.4151,-14.38,-57.636,1.53E+08
20707,7.3559,-16.19,-55.919,5.51E+07
20708,8.2197,-14.297,-56.753,1.06E+08
20709,7.2967,-19.338,-49.031,5.57E+06
20710,8.0224,-18.903,-46.911,1.81E+07
20711,8.3371,-18.67,-48.455,1.76E+07
20712,-69.497,-6.25,-70.407,1.28E+06
20713,-71.65,-6.839,-70.22,9.22E+05
20714,-67.915,-7.1376,-70.058,7.58E+05
20715,-67.665,-8.2867,-71.679,8.14E+05
20716,-69.284,-8.076,-72.438,5.80E+05
20717,-71.084,-8.1352,-71.98,6.94E+05
20718,-71.65,-5.089,-70.22,8.90E+05
20719,-71.333,-3.8802,-70.296,1.11E+06
20720,-67.915,-5.3876,-70.058,7.23E+05
20721,-67.665,-6.5367,-71.679,7.88E+05
20722,-67.814,-4.1445,-72.004,8.07E+05
20723,-69.284,-6.326,-72.438,5.36E+05
20724,-71.084,-6.3852,-71.98,6.42E+05
20725,-70.472,-3.7101,-72.089,6.06E+05
20726,-50.311,-6.2508,86.579,3.76E+07
20727,-46.566,-6.25,83.031,3.86E+07
20728,-49.054,-5.2742,83.385,3.69E+07
20729,-48.16,-7.5682,83.181,3.54E+07
20730,-49.397,-7.7218,83.928,3.28E+07
20731,17.561,14.221,-42.401,2.55E+08
20732,16.43,14.995,-43.877,2.58E+08
20733,17.311,13.116,-43.093,2.94E+08
20734,20,3,-52.941,4.18E+08
20735,20.212,1.8915,-54.252,4.01E+08
20736,20,4.8764,-56.068,3.23E+08
20737,20,5.5509,-54.236,3.35E+08
20738,19.053,1.8424,-56.328,3.22E+08
20739,18.554,3.8075,-56.746,2.87E+08
20740,18.367,3.7733,-54.033,3.20E+08
20741,20,3,-48.165,4.37E+08
20742,20.187,1.958,-48.126,4.24E+08
20743,20.212,1.8915,-51.864,4.21E+08
20744,20,5.4382,-49.616,3.63E+08
20745,20,5.5509,-51.848,3.59E+08
20746,18.367,3.7733,-51.645,3.43E+08
20747,18.413,4.3841,-48.695,3.45E+08
20748,18.487,1.969,-50.01,3.52E+08
20749,20.187,1.958,-45.738,4.24E+08
20750,20,5.4382,-47.227,3.62E+08
20751,20,5.7041,-45.317,3.21E+08
20752,18.431,2.3114,-44.69,3.34E+08
20753,18.413,4.3841,-46.307,3.45E+08
20754,18.487,1.969,-47.622,3.50E+08
20755,-2.8722,25.605,-44.389,1.23E+08
20756,-3.1867,26.691,-45.035,9.86E+07
20757,2.7485,25.623,-44.607,1.36E+08
20758,38.215,-6.5654,0,1.45E+08
20759,39.078,-5.207,-1.7702,1.47E+08
20760,37.889,-2.9479,-1.0664,1.50E+08
20761,37.14,-5.6459,-1.8257,1.31E+08
20762,36.786,-5.6686,0.83498,1.23E+08
20763,36.857,-2.7863,2.0592,1.21E+08
20764,39.131,-7.396,-1.7702,1.39E+08
20765,37.193,-7.8349,-1.8257,1.26E+08
20766,36.84,-7.8576,0.83498,1.21E+08
20767,36.869,-10.041,-1.2276,1.25E+08
20768,36.721,-10.215,1.1114,1.23E+08
20769,37.94,-9.2839,-2.7641,1.37E+08
20770,2.4764,-49,35.414,1.12E+08
20771,-2.4764,-49,35.414,1.26E+08
20772,1.53E-16,-49,34.25,1.13E+08
20773,1.22E-16,-47.25,34.5,4.78E+07
20774,-1.3926,-47.952,35.18,8.77E+07
20775,1.4723,-48.022,35.403,9.42E+07
20776,7.3809,-49,34.724,8.29E+07
20777,2.4703,-49,34.077,9.45E+07
20778,4.9295,-49,33.893,1.21E+08
20779,4.9091,-47.25,34.149,7.86E+07
20780,3.9426,-48.022,35.23,8.26E+07
20781,6.044,-48.158,34.776,7.51E+07
20782,12.142,-49,33.359,4.77E+07
20783,9.756,-49,32.829,1.36E+08
20784,7.3518,-49,33.378,9.65E+07
20785,9.7182,-47.25,33.102,1.02E+08
20786,9.682,-47,33.374,7.01E+07
20787,8.4662,-48.158,34.261,5.52E+07
20788,10.855,-48.05,34.045,6.52E+07
20789,11.239,-48.22,33.074,5.67E+07
20790,16.666,-49,31.345,3.80E+07
20791,14.379,-49,31.081,1.40E+08
20792,12.083,-49,31.982,1.22E+08
20793,14.329,-47.25,31.382,1.15E+08
20794,14.282,-47,31.679,7.84E+07
20795,15.477,-48.125,31.325,4.27E+07
20796,13.566,-48.22,32.227,3.65E+07
20797,20.866,-49,28.72,7.02E+07
20798,18.701,-49,28.686,1.32E+08
20799,16.565,-49,29.919,1.46E+08
20800,18.648,-47.25,29.022,1.21E+08
20801,18.597,-47,29.354,8.65E+07
20802,17.664,-48.125,30.162,5.87E+07
20803,19.732,-48.125,28.836,6.14E+07
20804,24.66,-49,25.537,1.01E+08
20805,22.632,-49,25.693,1.17E+08
20806,20.704,-49,27.23,1.52E+08
20807,22.587,-47.25,26.072,1.14E+08
20808,22.542,-47,26.445,9.49E+07
20809,21.735,-48.125,27.381,8.99E+07
20810,27.974,-49,21.856,1.20E+08
20811,26.091,-49,22.165,1.07E+08
20812,24.414,-49,23.972,1.39E+08
20813,26.066,-47.25,22.592,9.96E+07
20814,24.368,-47.25,24.352,1.36E+08
20815,26.039,-47,23.01,9.20E+07
20816,30.744,-49,17.75,1.30E+08
20817,29.005,-49,18.176,1.20E+08
20818,27.616,-49,20.213,1.23E+08
20819,29.013,-47.25,18.651,8.87E+07
20820,27.59,-47.25,20.64,1.17E+08
20821,29.017,-47,19.117,8.74E+07
20822,32.915,-49,13.299,1.27E+08
20823,31.313,-49,13.809,1.27E+08
20824,30.243,-49,16.031,1.21E+08
20825,30.848,-48.5,13.627,1.24E+08
20826,31.369,-47.25,14.332,7.77E+07
20827,30.251,-47.25,16.507,9.24E+07
20828,31.417,-47,14.843,7.68E+07
20829,34.445,-49,8.5882,1.12E+08
20830,32.968,-49,9.1566,1.25E+08
20831,32.241,-49,11.513,1.15E+08
20832,31.775,-48.5,11.331,1.10E+08
20833,32.48,-48.5,9.0454,1.35E+08
20834,33.087,-47.25,9.7217,7.33E+07
20835,32.297,-47.25,12.036,6.72E+07
20836,33.193,-47,10.275,6.58E+07
20837,35.306,-49,3.7108,8.87E+07
20838,33.934,-49,4.3153,1.08E+08
20839,33.567,-49,6.7539,1.06E+08
20840,33.079,-48.5,6.6426,1.17E+08
20841,34.13,-47.25,4.9142,6.91E+07
20842,33.686,-47.25,7.3189,5.43E+07
20843,34.307,-47,5.5016,5.52E+07
20844,35.478,-49,-1.2389,6.48E+07
20845,34.193,-49,-0.61358,8.71E+07
20846,34.193,-49,1.8525,8.73E+07
20847,34.478,-47.25,7.72E-03,6.17E+07
20848,34.389,-47.25,2.4514,4.90E+07
20849,34.739,-47,0.61947,4.23E+07
20850,34.961,-49,-6.1645,4.66E+07
20851,33.739,-49,-5.527,6.60E+07
20852,34.107,-49,-3.0884,6.97E+07
20853,34.124,-47.25,-4.8978,5.42E+07
20854,34.392,-47.25,-2.4671,4.53E+07
20855,34.48,-47,-4.2747,3.58E+07
20856,33.763,-49,-10.97,3.30E+07
20857,32.582,-49,-10.322,4.89E+07
20858,33.309,-49,-7.9657,5.59E+07
20859,33.076,-47.25,-9.7024,4.77E+07
20860,33.694,-47.25,-7.3365,4.43E+07
20861,34.05,-47,-6.7135,2.60E+07
20862,33.534,-47,-9.0836,2.98E+07
20863,31.907,-49,-15.562,2.73E+07
20864,30.747,-49,-14.899,3.42E+07
20865,31.817,-49,-12.677,4.37E+07
20866,31.354,-47.25,-14.308,4.03E+07
20867,32.31,-47.25,-12.058,4.00E+07
20868,29.431,-49,-19.851,3.03E+07
20869,29.661,-49,-17.125,3.63E+07
20870,28.995,-47.25,-18.621,3.45E+07
20871,30.268,-47.25,-16.534,3.53E+07
20872,29.673,-47,-18.066,2.75E+07
20873,26.382,-49,-23.754,3.64E+07
20874,26.887,-49,-21.216,3.42E+07
20875,28.277,-49,-19.178,4.48E+07
20876,26.046,-47.25,-22.554,3.04E+07
20877,27.61,-47.25,-20.674,3.16E+07
20878,26.835,-47,-22.061,2.94E+07
20879,22.819,-49,-27.195,3.97E+07
20880,23.553,-49,-24.864,3.49E+07
20881,25.23,-49,-23.056,4.39E+07
20882,22.567,-47.25,-26.026,2.82E+07
20883,24.389,-47.25,-24.394,2.88E+07
20884,23.463,-47,-25.616,3.17E+07
20885,18.812,-49,-30.106,4.10E+07
20886,19.728,-49,-27.993,3.48E+07
20887,21.656,-49,-26.455,3.94E+07
20888,20.67,-47.25,-27.618,2.91E+07
20889,19.621,-48.178,-28.826,2.01E+07
20890,14.439,-49,-32.431,4.45E+07
20891,15.492,-49,-30.538,3.76E+07
20892,17.628,-49,-29.305,3.98E+07
20893,16.531,-47.25,-30.279,2.97E+07
20894,15.303,-48.205,-31.28,2.23E+07
20895,17.521,-48.178,-30.138,2.34E+07
20896,9.7851,-49,-34.125,4.92E+07
20897,10.934,-49,-32.446,3.82E+07
20898,13.23,-49,-31.546,4.06E+07
20899,12.054,-47.25,-32.324,2.83E+07
20900,11.157,-48.107,-33.311,2.64E+07
20901,13.041,-48.205,-32.287,2.47E+07
20902,4.9406,-49,-35.155,4.92E+07
20903,6.1496,-49,-33.678,4.20E+07
20904,8.5539,-49,-33.129,4.04E+07
20905,4.9131,-47.25,-34.067,2.25E+07
20906,7.3324,-47.25,-33.711,2.31E+07
20907,6.1098,-47,-34.189,3.62E+07
20908,8.7766,-48.107,-33.994,2.92E+07
20909,3.04E-14,-49,-35.5,4.44E+07
20910,1.2382,-49,-34.207,3.96E+07
20911,3.6974,-49,-34.022,3.66E+07
20912,2.4608,-47.25,-34.412,2.42E+07
20913,1.0894,-48.046,-35.025,2.34E+07
20914,-4.9406,-49,-35.155,4.02E+07
20915,-3.6974,-49,-34.022,4.00E+07
20916,-1.2382,-49,-34.207,3.47E+07
20917,-2.4608,-47.25,-34.412,2.66E+07
20918,-2.4494,-47.626,-35.407,2.21E+07
20919,-3.7759,-48.063,-34.93,2.45E+07
20920,-1.387,-48.046,-35.025,2.08E+07
20921,-9.7851,-49,-34.125,3.32E+07
20922,-8.5539,-49,-33.129,4.15E+07
20923,-6.1496,-49,-33.678,3.09E+07
20924,-7.3324,-47.25,-33.711,2.83E+07
20925,-8.6642,-48.004,-33.953,1.60E+07
20926,-6.2282,-48.063,-34.586,1.94E+07
20927,-14.439,-49,-32.431,2.54E+07
20928,-13.23,-49,-31.546,4.69E+07
20929,-10.934,-49,-32.446,3.39E+07
20930,-12.054,-47.25,-32.324,3.48E+07
20931,-12.017,-47.189,-33.409,1.85E+07
20932,-11.045,-48.004,-33.271,8.35E+06
20933,-18.812,-49,-30.106,2.03E+07
20934,-17.628,-49,-29.305,5.07E+07
20935,-15.492,-49,-30.538,4.29E+07
20936,-16.531,-47.25,-30.279,4.17E+07
20937,-15.395,-47,-31.136,2.78E+07
20938,-17.521,-48.178,-30.138,1.64E+07
20939,-22.819,-49,-27.195,2.45E+07
20940,-21.656,-49,-26.455,5.68E+07
20941,-19.728,-49,-27.993,5.12E+07
20942,-20.67,-47.25,-27.618,5.00E+07
20943,-19.621,-48.178,-28.826,2.23E+07
20944,-26.382,-49,-23.754,3.69E+07
20945,-25.23,-49,-23.056,6.34E+07
20946,-23.553,-49,-24.864,6.44E+07
20947,-24.389,-47.25,-24.394,5.39E+07
20948,-22.567,-47.25,-26.026,5.97E+07
20949,-23.463,-47,-25.616,4.06E+07
20950,-29.431,-49,-19.851,5.51E+07
20951,-28.277,-49,-19.178,6.87E+07
20952,-26.887,-49,-21.216,7.39E+07
20953,-27.61,-47.25,-20.674,5.73E+07
20954,-26.046,-47.25,-22.554,6.63E+07
20955,-26.835,-47,-22.061,4.61E+07
20956,-31.907,-49,-15.562,7.19E+07
20957,-29.661,-49,-17.125,8.09E+07
20958,-30.268,-47.25,-16.534,5.69E+07
20959,-28.995,-47.25,-18.621,7.02E+07
20960,-29.673,-47,-18.066,5.08E+07
20961,-33.763,-49,-10.97,8.71E+07
20962,-31.817,-49,-12.677,8.51E+07
20963,-30.747,-49,-14.899,9.27E+07
20964,-32.31,-47.25,-12.058,5.76E+07
20965,-31.354,-47.25,-14.308,6.93E+07
20966,-34.961,-49,-6.1645,9.77E+07
20967,-33.309,-49,-7.9657,9.01E+07
20968,-32.582,-49,-10.322,9.70E+07
20969,-33.694,-47.25,-7.3365,5.87E+07
20970,-33.076,-47.25,-9.7024,7.03E+07
20971,-33.534,-47,-9.0836,5.95E+07
20972,-34.05,-47,-6.7135,5.51E+07
20973,-35.478,-49,-1.2389,9.85E+07
20974,-34.107,-49,-3.0884,9.21E+07
20975,-33.739,-49,-5.527,9.41E+07
20976,-34.124,-47.25,-4.8978,6.32E+07
20977,-34.48,-47,-4.2747,5.91E+07
20978,-34.951,-47.71,-3.1307,7.30E+07
20979,-35.306,-49,3.7108,9.48E+07
20980,-34.193,-49,1.8525,9.24E+07
20981,-34.193,-49,-0.61358,9.02E+07
20982,-34.478,-47.25,7.72E-03,6.13E+07
20983,-35.038,-47.71,-0.65585,7.17E+07
20984,-35.44,-47.626,1.8307,7.71E+07
20985,-34.445,-49,8.5882,8.54E+07
20986,-33.567,-49,6.7539,9.37E+07
20987,-33.934,-49,4.3153,8.41E+07
20988,-33.079,-48.5,6.6426,1.01E+08
20989,-33.686,-47.25,7.3189,7.21E+07
20990,-34.13,-47.25,4.9142,5.86E+07
20991,-34.307,-47,5.5016,5.58E+07
20992,-35.181,-47.626,4.2935,7.48E+07
20993,-32.915,-49,13.299,7.06E+07
20994,-32.241,-49,11.513,8.64E+07
20995,-32.968,-49,9.1566,7.98E+07
20996,-32.48,-48.5,9.0454,8.68E+07
20997,-32.297,-47.25,12.036,7.75E+07
20998,-33.087,-47.25,9.7217,5.80E+07
20999,-33.193,-47,10.275,5.31E+07
21000,-30.744,-49,17.75,4.98E+07
21001,-30.243,-49,16.031,8.42E+07
21002,-31.313,-49,13.809,7.18E+07
21003,-30.848,-48.5,13.627,1.00E+08
21004,-29.81,-48.5,15.781,1.21E+08
21005,-30.251,-47.25,16.507,8.20E+07
21006,-31.369,-47.25,14.332,6.33E+07
21007,-31.417,-47,14.843,5.25E+07
21008,-27.974,-49,21.856,2.74E+07
21009,-27.616,-49,20.213,8.13E+07
21010,-29.005,-49,18.176,7.12E+07
21011,-28.572,-48.5,17.926,1.12E+08
21012,-27.225,-48.5,19.902,1.27E+08
21013,-28.145,-47.25,18.623,1.28E+08
21014,-27.59,-47.25,20.64,8.33E+07
21015,-29.013,-47.25,18.651,6.70E+07
21016,-29.017,-47,19.117,5.19E+07
21017,-24.66,-49,25.537,3.05E+07
21018,-24.414,-49,23.972,8.56E+07
21019,-26.091,-49,22.165,7.92E+07
21020,-25.7,-48.5,21.853,1.26E+08
21021,-24.074,-48.5,23.606,1.31E+08
21022,-24.368,-47.25,24.352,8.29E+07
21023,-26.066,-47.25,22.592,7.28E+07
21024,-26.039,-47,23.01,5.35E+07
21025,-20.866,-49,28.72,5.37E+07
21026,-20.704,-49,27.23,8.81E+07
21027,-22.632,-49,25.693,9.17E+07
21028,-22.292,-48.5,25.326,1.34E+08
21029,-22.587,-47.25,26.072,7.69E+07
21030,-22.542,-47,26.445,5.87E+07
21031,-21.692,-48.235,27.302,3.66E+07
21032,-16.666,-49,31.345,8.84E+07
21033,-16.565,-49,29.919,9.21E+07
21034,-18.701,-49,28.686,1.02E+08
21035,-18.648,-47.25,29.022,7.42E+07
21036,-19.689,-48.235,28.758,5.12E+07
21037,-17.664,-48.125,30.162,4.58E+07
21038,-12.142,-49,33.359,1.14E+08
21039,-12.083,-49,31.982,9.87E+07
21040,-14.379,-49,31.081,1.15E+08
21041,-14.329,-47.25,31.382,5.90E+07
21042,-14.282,-47,31.679,5.74E+07
21043,-13.242,-48.125,32.343,7.11E+07
21044,-15.477,-48.125,31.325,6.96E+07
21045,-7.3809,-49,34.724,1.24E+08
21046,-7.3518,-49,33.378,1.04E+08
21047,-9.756,-49,32.829,1.14E+08
21048,-9.7182,-47.25,33.102,4.36E+07
21049,-8.74,-47.987,34.288,8.93E+07
21050,-10.915,-48.125,33.19,8.10E+07
21051,-2.4703,-49,34.077,1.22E+08
21052,-4.9295,-49,33.893,1.12E+08
21053,-4.9091,-47.25,34.149,3.18E+07
21054,-6.3177,-47.987,34.803,9.26E+07
21055,-3.8629,-47.952,35.007,9.18E+07
21056,-2.4661,-49,32.908,1.12E+08
21057,2.4661,-49,32.908,1.68E+08
21058,-6.12E-17,-48.5,32.5,1.28E+08
21059,-4.07E-15,-47.25,33.25,8.99E+07
21060,-1.3926,-47.952,33.93,8.71E+07
21061,1.4723,-48.022,34.153,8.26E+07
21062,-7.3432,-49,32.173,1.21E+08
21063,-2.4287,-48.5,32.409,9.71E+07
21064,-4.8439,-48.5,32.137,7.86E+07
21065,-4.898,-47.25,32.887,5.11E+07
21066,-6.3066,-47.987,33.541,7.37E+07
21067,-3.8518,-47.952,33.745,7.52E+07
21068,-12.056,-49,30.719,1.58E+08
21069,-9.5795,-48.5,31.056,1.47E+08
21070,-7.2319,-48.5,31.685,9.49E+07
21071,-9.6891,-47.25,31.807,1.04E+08
21072,-8.7109,-47.987,32.992,8.78E+07
21073,-10.886,-48.125,31.895,9.81E+07
21074,-16.5,-49,28.579,1.83E+08
21075,-14.101,-48.5,29.281,2.06E+08
21076,-11.874,-48.5,30.253,1.63E+08
21077,-14.269,-47.25,30.032,1.50E+08
21078,-13.182,-48.125,30.994,1.17E+08
21079,-15.417,-48.125,29.976,1.21E+08
21080,-20.575,-49,25.8,1.92E+08
21081,-18.308,-48.5,26.853,2.33E+08
21082,-16.25,-48.5,28.146,2.10E+08
21083,-18.537,-47.25,27.602,1.74E+08
21084,-19.578,-48.235,27.338,1.37E+08
21085,-17.553,-48.125,28.742,1.28E+08
21086,-24.191,-49,22.446,1.87E+08
21087,-22.106,-48.5,23.824,2.39E+08
21088,-20.263,-48.5,25.41,2.33E+08
21089,-21.506,-48.235,25.8,1.38E+08
21090,-27.266,-49,18.59,1.72E+08
21091,-26.853,-48.5,18.308,2.14E+08
21092,-25.41,-48.5,20.263,2.27E+08
21093,-23.824,-48.5,22.106,2.32E+08
21094,-29.732,-49,14.318,1.53E+08
21095,-29.281,-48.5,14.101,1.87E+08
21096,-28.146,-48.5,16.25,2.05E+08
21097,-31.534,-49,9.7269,1.34E+08
21098,-31.056,-48.5,9.5795,1.54E+08
21099,-30.253,-48.5,11.874,1.80E+08
21100,-30.775,-47.25,12.579,1.31E+08
21101,-31.565,-47.25,10.265,1.15E+08
21102,-32.631,-49,4.9184,1.14E+08
21103,-31.685,-48.5,7.2319,1.44E+08
21104,-33,-49,-2.00E-14,1.01E+08
21105,-32.409,-48.5,2.4287,1.16E+08
21106,-32.137,-48.5,4.8439,1.35E+08
21107,-33.103,-47.25,3.065,7.67E+07
21108,-33.193,-47.25,0.6213,6.86E+07
21109,-34.154,-47.626,2.4443,6.47E+07
21110,-32.631,-49,-4.9184,1.00E+08
21111,-32.409,-48.5,-2.4287,1.04E+08
21112,-32.5,-48.5,-1.56E-06,1.11E+08
21113,-33.193,-47.25,-1.8448,6.37E+07
21114,-32.925,-47.25,-4.2755,6.29E+07
21115,-33.752,-47.71,-2.5084,6.48E+07
21116,-31.534,-49,-9.7269,1.10E+08
21117,-31.685,-48.5,-7.2319,1.15E+08
21118,-32.137,-48.5,-4.8439,1.05E+08
21119,-32.558,-47.25,-6.714,6.59E+07
21120,-31.939,-47.25,-9.0798,7.90E+07
21121,-29.732,-49,-14.318,1.23E+08
21122,-30.253,-48.5,-11.874,1.38E+08
21123,-31.056,-48.5,-9.5795,1.21E+08
21124,-31.212,-47.25,-11.436,8.65E+07
21125,-30.256,-47.25,-13.687,9.76E+07
21126,-27.266,-49,-18.59,1.33E+08
21127,-26.853,-48.5,-18.308,1.68E+08
21128,-28.146,-48.5,-16.25,1.59E+08
21129,-29.281,-48.5,-14.101,1.43E+08
21130,-29.186,-47.25,-15.909,1.04E+08
21131,-27.912,-47.25,-17.996,1.14E+08
21132,-24.191,-49,-22.446,1.35E+08
21133,-23.824,-48.5,-22.106,1.72E+08
21134,-25.41,-48.5,-20.263,1.71E+08
21135,-26.523,-47.25,-20.034,1.17E+08
21136,-24.959,-47.25,-21.913,1.21E+08
21137,-20.575,-49,-25.8,1.27E+08
21138,-22.106,-48.5,-23.824,1.72E+08
21139,-23.281,-47.25,-23.721,1.21E+08
21140,-21.46,-47.25,-25.353,1.20E+08
21141,-16.5,-49,-28.579,1.13E+08
21142,-16.25,-48.5,-28.146,1.45E+08
21143,-18.308,-48.5,-26.853,1.60E+08
21144,-20.263,-48.5,-25.41,1.65E+08
21145,-19.532,-47.25,-26.891,1.15E+08
21146,-18.482,-48.178,-28.099,8.65E+07
21147,-12.056,-49,-30.719,9.49E+07
21148,-11.874,-48.5,-30.253,1.19E+08
21149,-14.101,-48.5,-29.281,1.40E+08
21150,-15.357,-47.25,-29.473,1.03E+08
21151,-13.143,-47.25,-30.511,9.36E+07
21152,-14.221,-47,-30.33,8.35E+07
21153,-16.347,-48.178,-29.332,8.02E+07
21154,-7.3432,-49,-32.173,7.22E+07
21155,-9.5795,-48.5,-31.056,1.10E+08
21156,-10.847,-47.25,-31.412,8.50E+07
21157,-8.5054,-47.25,-32.116,7.28E+07
21158,-9.8372,-48.004,-32.358,5.22E+07
21159,-2.4661,-49,-32.908,5.43E+07
21160,-4.8439,-48.5,-32.137,7.76E+07
21161,-7.2319,-48.5,-31.685,9.93E+07
21162,-6.1012,-47.25,-32.665,6.57E+07
21163,-3.6819,-47.25,-33.021,5.58E+07
21164,-4.9969,-48.063,-33.539,3.52E+07
21165,2.4661,-49,-32.908,4.26E+07
21166,1.34E-14,-48.5,-32.5,5.10E+07
21167,2.4287,-48.5,-32.409,3.46E+07
21168,-2.4287,-48.5,-32.409,7.11E+07
21169,-1.2227,-47.25,-33.205,5.25E+07
21170,1.2227,-47.25,-33.205,4.17E+07
21171,-0.14883,-48.046,-33.818,2.85E+07
21172,7.3432,-49,-32.173,3.48E+07
21173,7.2319,-48.5,-31.685,1.85E+07
21174,4.8439,-48.5,-32.137,3.00E+07
21175,3.6819,-47.25,-33.021,4.05E+07
21176,6.1012,-47.25,-32.665,3.72E+07
21177,12.056,-49,-30.719,3.52E+07
21178,9.5795,-48.5,-31.056,1.76E+07
21179,8.5054,-47.25,-32.116,3.83E+07
21180,10.847,-47.25,-31.412,3.88E+07
21181,9.9496,-48.107,-32.399,1.99E+07
21182,11.834,-48.205,-31.374,2.04E+07
21183,16.5,-49,-28.579,4.10E+07
21184,14.101,-48.5,-29.281,2.82E+07
21185,11.874,-48.5,-30.253,2.00E+07
21186,15.357,-47.25,-29.473,4.34E+07
21187,14.129,-48.205,-30.473,2.42E+07
21188,16.347,-48.178,-29.332,2.59E+07
21189,20.575,-49,-25.8,4.95E+07
21190,20.263,-48.5,-25.41,6.15E+07
21191,18.308,-48.5,-26.853,4.51E+07
21192,16.25,-48.5,-28.146,3.09E+07
21193,19.532,-47.25,-26.891,4.95E+07
21194,18.482,-48.178,-28.099,2.92E+07
21195,24.191,-49,-22.446,6.49E+07
21196,22.106,-48.5,-23.824,6.76E+07
21197,21.46,-47.25,-25.353,5.31E+07
21198,23.281,-47.25,-23.721,6.12E+07
21199,27.266,-49,-18.59,8.40E+07
21200,25.41,-48.5,-20.263,9.55E+07
21201,23.824,-48.5,-22.106,7.54E+07
21202,24.959,-47.25,-21.913,6.70E+07
21203,26.523,-47.25,-20.034,7.65E+07
21204,29.732,-49,-14.318,1.04E+08
21205,29.281,-48.5,-14.101,1.41E+08
21206,28.146,-48.5,-16.25,1.23E+08
21207,26.853,-48.5,-18.308,1.04E+08
21208,27.912,-47.25,-17.996,8.38E+07
21209,29.186,-47.25,-15.909,9.26E+07
21210,31.534,-49,-9.7269,1.25E+08
21211,31.056,-48.5,-9.5795,1.66E+08
21212,30.253,-48.5,-11.874,1.51E+08
21213,30.256,-47.25,-13.687,1.01E+08
21214,31.212,-47.25,-11.436,1.09E+08
21215,32.631,-49,-4.9184,1.43E+08
21216,32.137,-48.5,-4.8439,1.86E+08
21217,31.685,-48.5,-7.2319,1.76E+08
21218,31.939,-47.25,-9.0798,1.18E+08
21219,32.558,-47.25,-6.714,1.23E+08
21220,33,-49,4.52E-14,1.57E+08
21221,32.5,-48.5,-1.56E-06,1.96E+08
21222,32.409,-48.5,-2.4287,1.95E+08
21223,32.925,-47.25,-4.2755,1.31E+08
21224,33.193,-47.25,-1.8448,1.31E+08
21225,32.631,-49,4.9184,1.62E+08
21226,32.137,-48.5,4.8439,1.89E+08
21227,32.409,-48.5,2.4287,2.03E+08
21228,33.193,-47.25,0.6213,1.37E+08
21229,33.103,-47.25,3.065,1.31E+08
21230,31.534,-49,9.7269,1.51E+08
21231,31.685,-48.5,7.2319,1.87E+08
21232,29.732,-49,14.318,1.33E+08
21233,30.253,-48.5,11.874,1.54E+08
21234,31.056,-48.5,9.5795,1.79E+08
21235,27.266,-49,18.59,1.32E+08
21236,28.146,-48.5,16.25,1.25E+08
21237,29.281,-48.5,14.101,1.45E+08
21238,28.587,-47.25,16.976,8.66E+07
21239,24.191,-49,22.446,1.84E+08
21240,23.824,-48.5,22.106,2.33E+08
21241,25.41,-48.5,20.263,1.64E+08
21242,26.853,-48.5,18.308,1.30E+08
21243,27.198,-47.25,19.013,9.72E+07
21244,25.775,-47.25,21.002,1.30E+08
21245,20.575,-49,25.8,2.59E+08
21246,20.263,-48.5,25.41,3.37E+08
21247,22.106,-48.5,23.824,2.75E+08
21248,24.098,-47.25,22.81,1.72E+08
21249,22.4,-47.25,24.57,2.11E+08
21250,21.549,-48.125,25.879,1.72E+08
21251,16.5,-49,28.579,3.05E+08
21252,16.25,-48.5,28.146,3.91E+08
21253,18.308,-48.5,26.853,3.71E+08
21254,18.537,-47.25,27.602,2.74E+08
21255,17.553,-48.125,28.742,2.07E+08
21256,19.621,-48.125,27.416,2.07E+08
21257,12.056,-49,30.719,3.00E+08
21258,11.874,-48.5,30.253,3.73E+08
21259,14.101,-48.5,29.281,4.04E+08
21260,14.269,-47.25,30.032,2.91E+08
21261,15.417,-48.125,29.976,2.20E+08
21262,13.505,-48.22,30.877,2.14E+08
21263,7.3432,-49,32.173,2.46E+08
21264,7.2319,-48.5,31.685,2.89E+08
21265,9.5795,-48.5,31.056,3.59E+08
21266,9.6891,-47.25,31.807,2.56E+08
21267,8.4371,-48.158,32.966,1.55E+08
21268,11.209,-48.22,31.778,1.98E+08
21269,2.4287,-48.5,32.409,1.68E+08
21270,4.8439,-48.5,32.137,2.53E+08
21271,4.898,-47.25,32.887,1.79E+08
21272,3.9315,-48.022,33.968,1.15E+08
21273,6.0329,-48.158,33.514,1.15E+08
21274,2.3914,-48,31.911,2.23E+08
21275,-2.3914,-48,31.911,8.46E+07
21276,-1.2257,-46.75,31.977,1.17E+08
21277,1.2257,-46.75,31.977,1.99E+08
21278,-9.18E-17,-46.75,32.75,1.17E+08
21279,-1.3926,-47.452,33.43,8.03E+07
21280,1.4723,-47.522,33.653,6.68E+07
21281,2.3914,-48,-31.911,5.38E+07
21282,-2.3914,-48,-31.911,8.36E+07
21283,-3.92E-15,-46.75,-32,8.33E+07
21284,-1.2227,-46.75,-32.705,7.75E+07
21285,1.2227,-46.75,-32.705,6.85E+07
21286,7.1207,-48,31.198,3.69E+08
21287,3.6119,-46.75,31.796,2.74E+08
21288,6.0352,-46.75,31.426,3.56E+08
21289,4.8235,-46.75,32.393,2.34E+08
21290,3.8569,-47.522,33.474,1.54E+08
21291,5.9583,-47.658,33.02,1.56E+08
21292,11.691,-48,29.788,4.60E+08
21293,8.3668,-46.75,30.887,4.18E+08
21294,10.707,-46.75,30.156,4.68E+08
21295,9.5417,-46.75,31.329,3.35E+08
21296,8.2898,-47.658,32.488,2.27E+08
21297,11.062,-47.72,31.301,2.73E+08
21298,16,-48,27.713,4.67E+08
21299,12.93,-46.75,29.271,4.93E+08
21300,15.133,-46.75,28.196,4.95E+08
21301,14.052,-46.75,29.582,3.78E+08
21302,15.2,-47.625,29.525,3.07E+08
21303,13.288,-47.72,30.427,3.01E+08
21304,19.952,-48,25.019,3.86E+08
21305,17.198,-46.75,26.986,4.73E+08
21306,19.213,-46.75,25.59,4.25E+08
21307,18.255,-46.75,27.189,3.50E+08
21308,17.271,-47.625,28.329,2.84E+08
21309,19.339,-47.625,27.003,2.84E+08
21310,23.458,-48,21.766,2.54E+08
21311,21.072,-46.75,24.083,3.64E+08
21312,22.853,-46.75,22.399,2.85E+08
21313,23.758,-46.75,22.443,2.22E+08
21314,22.06,-46.75,24.204,2.58E+08
21315,21.209,-47.625,25.512,2.18E+08
21316,26.44,-48,18.026,1.47E+08
21317,24.463,-46.75,20.629,2.10E+08
21318,25.971,-46.75,18.696,1.34E+08
21319,26.807,-46.75,18.702,1.14E+08
21320,25.384,-46.75,20.69,1.47E+08
21321,28.831,-48,13.884,1.49E+08
21322,27.295,-46.75,16.703,9.60E+07
21323,28.494,-46.75,14.564,1.01E+08
21324,28.154,-46.75,16.726,8.19E+07
21325,30.578,-48,9.4322,1.98E+08
21326,29.502,-46.75,12.394,1.31E+08
21327,30.365,-46.75,10.099,1.71E+08
21328,31.099,-46.75,10.082,1.25E+08
21329,30.31,-46.75,12.396,1.11E+08
21330,29.192,-46.75,14.571,1.00E+08
21331,31.643,-48,4.7694,2.31E+08
21332,31.034,-46.75,7.8019,1.95E+08
21333,31.541,-46.75,5.4034,2.20E+08
21334,32.248,-46.75,5.3923,1.61E+08
21335,31.804,-46.75,7.797,1.50E+08
21336,32,-48,5.88E-15,2.40E+08
21337,31.856,-46.75,3.0312,2.31E+08
21338,31.995,-46.75,0.58377,2.41E+08
21339,32.694,-46.75,0.58394,1.77E+08
21340,32.605,-46.75,3.0276,1.72E+08
21341,31.643,-48,-4.7694,2.27E+08
21342,31.949,-46.75,-1.8088,2.38E+08
21343,31.717,-46.75,-4.2492,2.33E+08
21344,32.427,-46.75,-4.2381,1.74E+08
21345,32.694,-46.75,-1.8074,1.73E+08
21346,30.578,-48,-9.4322,2.02E+08
21347,31.31,-46.75,-6.6075,2.23E+08
21348,30.713,-46.75,-8.9849,2.11E+08
21349,31.452,-46.75,-8.9686,1.59E+08
21350,32.07,-46.75,-6.6028,1.64E+08
21351,28.831,-48,-13.884,1.70E+08
21352,29.955,-46.75,-11.255,1.98E+08
21353,29.006,-46.75,-13.515,1.81E+08
21354,29.79,-46.75,-13.504,1.38E+08
21355,30.747,-46.75,-11.254,1.45E+08
21356,26.44,-48,-18.026,1.37E+08
21357,27.915,-46.75,-15.645,1.67E+08
21358,26.635,-46.75,-17.736,1.48E+08
21359,27.479,-46.75,-17.746,1.17E+08
21360,28.753,-46.75,-15.659,1.24E+08
21361,23.458,-48,-21.766,1.03E+08
21362,25.236,-46.75,-19.677,1.34E+08
21363,23.655,-46.75,-21.551,1.15E+08
21364,24.568,-46.75,-21.602,9.65E+07
21365,26.132,-46.75,-19.722,1.04E+08
21366,19.952,-48,-25.019,7.31E+07
21367,21.979,-46.75,-23.258,1.03E+08
21368,20.134,-46.75,-24.872,8.61E+07
21369,21.12,-46.75,-24.986,7.96E+07
21370,22.941,-46.75,-23.355,8.59E+07
21371,16,-48,-27.713,4.94E+07
21372,18.219,-46.75,-26.307,7.83E+07
21373,16.151,-46.75,-27.625,6.57E+07
21374,17.211,-46.75,-27.827,7.03E+07
21375,19.25,-46.75,-26.477,7.35E+07
21376,18.201,-47.678,-27.686,3.91E+07
21377,11.691,-48,-29.788,3.31E+07
21378,14.042,-46.75,-28.755,6.22E+07
21379,11.8,-46.75,-29.745,5.48E+07
21380,12.926,-46.75,-30.06,6.46E+07
21381,15.14,-46.75,-29.022,6.76E+07
21382,13.912,-47.705,-30.023,2.71E+07
21383,16.13,-47.678,-28.882,2.85E+07
21384,7.1207,-48,-31.198,3.41E+07
21385,9.5437,-46.75,-30.544,5.57E+07
21386,7.1776,-46.75,-31.185,5.65E+07
21387,8.358,-46.75,-31.638,6.29E+07
21388,10.7,-46.75,-30.934,6.38E+07
21389,11.686,-47.705,-30.897,2.13E+07
21390,2.3914,-46.75,-31.911,7.31E+07
21391,4.8271,-46.75,-31.634,6.29E+07
21392,3.6073,-46.75,-32.527,6.47E+07
21393,6.0266,-46.75,-32.171,6.40E+07
21394,-7.1207,-48,-31.198,1.19E+08
21395,-2.3914,-46.75,-31.911,9.37E+07
21396,-4.8271,-46.75,-31.634,1.15E+08
21397,-6.0266,-46.75,-32.171,9.39E+07
21398,-3.6073,-46.75,-32.527,8.69E+07
21399,-11.691,-48,-29.788,1.55E+08
21400,-7.1776,-46.75,-31.185,1.28E+08
21401,-9.5437,-46.75,-30.544,1.50E+08
21402,-10.7,-46.75,-30.934,1.17E+08
21403,-8.358,-46.75,-31.638,1.07E+08
21404,-16,-48,-27.713,1.85E+08
21405,-11.8,-46.75,-29.745,1.63E+08
21406,-14.042,-46.75,-28.755,1.82E+08
21407,-15.14,-46.75,-29.022,1.38E+08
21408,-12.926,-46.75,-30.06,1.30E+08
21409,-16.13,-47.678,-28.882,1.14E+08
21410,-19.952,-48,-25.019,2.03E+08
21411,-16.151,-46.75,-27.625,1.91E+08
21412,-18.219,-46.75,-26.307,2.05E+08
21413,-19.25,-46.75,-26.477,1.55E+08
21414,-17.211,-46.75,-27.827,1.48E+08
21415,-18.201,-47.678,-27.686,1.26E+08
21416,-23.458,-48,-21.766,2.06E+08
21417,-20.134,-46.75,-24.872,2.08E+08
21418,-21.979,-46.75,-23.258,2.11E+08
21419,-22.941,-46.75,-23.355,1.58E+08
21420,-21.12,-46.75,-24.986,1.58E+08
21421,-26.44,-48,-18.026,1.96E+08
21422,-23.655,-46.75,-21.551,2.07E+08
21423,-25.236,-46.75,-19.677,2.02E+08
21424,-26.132,-46.75,-19.722,1.52E+08
21425,-24.568,-46.75,-21.602,1.54E+08
21426,-28.831,-48,-13.884,1.74E+08
21427,-26.635,-46.75,-17.736,1.92E+08
21428,-27.915,-46.75,-15.645,1.76E+08
21429,-28.753,-46.75,-15.659,1.33E+08
21430,-27.479,-46.75,-17.746,1.42E+08
21431,-30.578,-48,-9.4322,1.44E+08
21432,-29.006,-46.75,-13.515,1.61E+08
21433,-29.955,-46.75,-11.255,1.39E+08
21434,-30.747,-46.75,-11.254,1.08E+08
21435,-29.79,-46.75,-13.504,1.18E+08
21436,-31.643,-48,-4.7694,1.19E+08
21437,-30.713,-46.75,-8.9849,1.22E+08
21438,-31.31,-46.75,-6.6075,9.87E+07
21439,-32.07,-46.75,-6.6028,7.83E+07
21440,-31.452,-46.75,-8.9686,9.05E+07
21441,-32,-48,-1.96E-15,1.20E+08
21442,-31.717,-46.75,-4.2492,8.71E+07
21443,-31.949,-46.75,-1.8088,8.19E+07
21444,-32.694,-46.75,-1.8074,6.88E+07
21445,-32.427,-46.75,-4.2381,6.80E+07
21446,-31.643,-48,4.7694,1.48E+08
21447,-31.995,-46.75,0.58377,9.24E+07
21448,-31.856,-46.75,3.0312,1.19E+08
21449,-32.605,-46.75,3.0276,8.77E+07
21450,-32.694,-46.75,0.58394,7.96E+07
21451,-30.578,-48,9.4322,1.92E+08
21452,-31.541,-46.75,5.4034,1.40E+08
21453,-31.034,-46.75,7.8019,1.72E+08
21454,-31.804,-46.75,7.797,1.25E+08
21455,-32.248,-46.75,5.3923,1.10E+08
21456,-28.831,-48,13.884,2.32E+08
21457,-30.365,-46.75,10.099,1.96E+08
21458,-29.502,-46.75,12.394,2.25E+08
21459,-30.31,-46.75,12.396,1.65E+08
21460,-31.099,-46.75,10.082,1.51E+08
21461,-26.44,-48,18.026,2.60E+08
21462,-28.494,-46.75,14.564,2.42E+08
21463,-27.295,-46.75,16.703,2.61E+08
21464,-28.154,-46.75,16.726,1.94E+08
21465,-29.272,-46.75,14.551,1.83E+08
21466,-23.458,-48,21.766,2.78E+08
21467,-25.971,-46.75,18.696,2.75E+08
21468,-24.463,-46.75,20.629,2.89E+08
21469,-25.384,-46.75,20.69,2.16E+08
21470,-19.952,-48,25.019,2.81E+08
21471,-22.853,-46.75,22.399,2.97E+08
21472,-21.072,-46.75,24.083,2.97E+08
21473,-22.06,-46.75,24.204,2.28E+08
21474,-23.758,-46.75,22.443,2.25E+08
21475,-21.166,-47.735,25.434,1.85E+08
21476,-16,-48,27.713,2.61E+08
21477,-19.213,-46.75,25.59,2.98E+08
21478,-17.198,-46.75,26.986,2.84E+08
21479,-18.255,-46.75,27.189,2.28E+08
21480,-19.296,-47.735,26.924,1.82E+08
21481,-17.271,-47.625,28.329,1.73E+08
21482,-11.691,-48,29.788,2.07E+08
21483,-15.133,-46.75,28.196,2.70E+08
21484,-12.93,-46.75,29.271,2.33E+08
21485,-14.052,-46.75,29.582,2.01E+08
21486,-12.965,-47.625,30.543,1.47E+08
21487,-15.2,-47.625,29.525,1.54E+08
21488,-7.1207,-48,31.198,1.18E+08
21489,-10.707,-46.75,30.156,2.02E+08
21490,-8.3668,-46.75,30.887,1.49E+08
21491,-9.5417,-46.75,31.329,1.44E+08
21492,-8.5635,-47.487,32.514,8.60E+07
21493,-10.739,-47.625,31.417,1.07E+08
21494,-6.0352,-46.75,31.426,1.06E+08
21495,-3.6119,-46.75,31.796,7.69E+07
21496,-4.8235,-46.75,32.393,7.37E+07
21497,-6.2321,-47.487,33.047,3.59E+07
21498,-3.7772,-47.452,33.251,4.04E+07
21499,-2.4496,-45.5,-31.906,1.13E+08
21500,2.4496,-45.5,-31.906,9.18E+07
21501,-1.2227,-45.5,-32.705,9.90E+07
21502,1.2227,-45.5,-32.705,9.29E+07
21503,-7.2913,-45.5,-31.158,1.43E+08
21504,-6.0843,-45.5,-32.162,1.11E+08
21505,-3.6651,-45.5,-32.518,1.06E+08
21506,-11.962,-45.5,-29.68,1.74E+08
21507,-10.811,-45.5,-30.899,1.30E+08
21508,-8.4695,-45.5,-31.604,1.22E+08
21509,-16.353,-45.5,-27.506,1.99E+08
21510,-15.297,-45.5,-28.945,1.48E+08
21511,-13.083,-45.5,-29.983,1.41E+08
21512,-20.36,-45.5,-24.688,2.10E+08
21513,-19.442,-45.5,-26.344,1.62E+08
21514,-17.403,-45.5,-27.694,1.55E+08
21515,-23.89,-45.5,-21.29,2.05E+08
21516,-23.153,-45.5,-23.154,1.61E+08
21517,-21.332,-45.5,-24.786,1.61E+08
21518,-26.86,-45.5,-17.394,1.82E+08
21519,-26.347,-45.5,-19.446,1.50E+08
21520,-24.783,-45.5,-21.325,1.52E+08
21521,-29.2,-45.5,-13.09,1.44E+08
21522,-28.953,-45.5,-15.302,1.24E+08
21523,-27.679,-45.5,-17.39,1.32E+08
21524,-30.856,-45.5,-8.4794,9.49E+07
21525,-30.911,-45.5,-10.817,9.05E+07
21526,-29.955,-45.5,-13.067,1.01E+08
21527,-31.789,-45.5,-3.6699,5.28E+07
21528,-32.179,-45.5,-6.0887,4.98E+07
21529,-31.56,-45.5,-8.4545,6.32E+07
21530,-31.977,-45.5,1.2257,8.38E+07
21531,-32.638,-45.5,1.2191,5.20E+07
21532,-32.727,-45.5,-1.2246,4.17E+07
21533,-32.46,-45.5,-3.6553,3.56E+07
21534,-31.415,-45.5,6.0925,1.48E+08
21535,-32.1,-45.5,6.0716,1.01E+08
21536,-32.544,-45.5,3.6669,8.56E+07
21537,-30.116,-45.5,10.817,2.08E+08
21538,-30.844,-45.5,10.791,1.47E+08
21539,-31.633,-45.5,8.4763,1.34E+08
21540,-28.112,-45.5,15.287,2.54E+08
21541,-28.898,-45.5,15.271,1.87E+08
21542,-30.016,-45.5,13.096,1.78E+08
21543,-25.449,-45.5,19.399,2.90E+08
21544,-26.305,-45.5,19.412,2.17E+08
21545,-27.728,-45.5,17.423,2.10E+08
21546,-22.19,-45.5,23.057,3.07E+08
21547,-23.122,-45.5,23.12,2.38E+08
21548,-24.82,-45.5,21.36,2.36E+08
21549,-18.41,-45.5,26.174,3.02E+08
21550,-19.422,-45.5,26.313,2.45E+08
21551,-21.357,-45.5,24.819,2.48E+08
21552,-20.463,-46.485,26.049,1.98E+08
21553,-14.199,-45.5,28.677,2.63E+08
21554,-15.286,-45.5,28.919,2.31E+08
21555,-17.418,-45.5,27.723,2.43E+08
21556,-16.434,-46.375,28.863,1.77E+08
21557,-9.6551,-45.5,30.509,1.89E+08
21558,-10.807,-45.5,30.88,1.81E+08
21559,-13.091,-45.5,30.006,2.11E+08
21560,-12.004,-46.375,30.968,1.35E+08
21561,-4.8848,-45.5,31.625,1.08E+08
21562,-6.0845,-45.5,32.151,1.15E+08
21563,-8.4713,-45.5,31.619,1.47E+08
21564,-7.4931,-46.237,32.804,5.78E+07
21565,-2.26E-14,-45.5,32,1.72E+08
21566,-1.2248,-45.5,32.703,1.06E+08
21567,-3.6636,-45.5,32.525,9.89E+07
21568,-2.6174,-46.202,33.383,4.37E+07
21569,4.8848,-45.5,31.625,3.24E+08
21570,1.2248,-45.5,32.703,1.73E+08
21571,3.6636,-45.5,32.525,2.08E+08
21572,2.6971,-46.272,33.606,1.17E+08
21573,9.6551,-45.5,30.509,4.47E+08
21574,8.4713,-45.5,31.619,3.19E+08
21575,6.0845,-45.5,32.151,2.84E+08
21576,7.2193,-46.408,32.778,2.05E+08
21577,14.199,-45.5,28.677,4.95E+08
21578,13.091,-45.5,30.006,3.85E+08
21579,10.807,-45.5,30.88,3.66E+08
21580,12.327,-46.47,30.852,3.05E+08
21581,18.41,-45.5,26.174,4.48E+08
21582,17.418,-45.5,27.723,3.79E+08
21583,15.286,-45.5,28.919,3.81E+08
21584,16.434,-46.375,28.863,3.11E+08
21585,22.19,-45.5,23.057,3.22E+08
21586,21.357,-45.5,24.819,3.00E+08
21587,19.422,-45.5,26.313,3.25E+08
21588,20.506,-46.375,26.127,2.59E+08
21589,25.449,-45.5,19.399,1.63E+08
21590,24.82,-45.5,21.36,1.80E+08
21591,23.122,-45.5,23.12,2.16E+08
21592,28.112,-45.5,15.287,5.37E+07
21593,27.728,-45.5,17.423,6.24E+07
21594,26.305,-45.5,19.412,9.74E+07
21595,30.116,-45.5,10.817,1.30E+08
21596,30.016,-45.5,13.096,6.80E+07
21597,28.898,-45.5,15.271,5.35E+07
21598,31.415,-45.5,6.0925,1.97E+08
21599,31.633,-45.5,8.4763,1.29E+08
21600,30.844,-45.5,10.791,1.12E+08
21601,31.977,-45.5,1.2257,2.30E+08
21602,32.544,-45.5,3.6669,1.64E+08
21603,32.1,-45.5,6.0716,1.52E+08
21604,31.789,-45.5,-3.6699,2.33E+08
21605,32.46,-45.5,-3.6553,1.75E+08
21606,32.727,-45.5,-1.2246,1.76E+08
21607,32.638,-45.5,1.2191,1.71E+08
21608,30.856,-45.5,-8.4794,2.16E+08
21609,31.56,-45.5,-8.4545,1.65E+08
21610,32.179,-45.5,-6.0887,1.71E+08
21611,29.2,-45.5,-13.09,1.91E+08
21612,29.955,-45.5,-13.067,1.48E+08
21613,30.911,-45.5,-10.817,1.56E+08
21614,26.86,-45.5,-17.394,1.60E+08
21615,27.679,-45.5,-17.39,1.30E+08
21616,28.953,-45.5,-15.302,1.37E+08
21617,23.89,-45.5,-21.29,1.31E+08
21618,24.783,-45.5,-21.325,1.13E+08
21619,26.347,-45.5,-19.446,1.19E+08
21620,20.36,-45.5,-24.688,1.06E+08
21621,21.332,-45.5,-24.786,1.00E+08
21622,23.153,-45.5,-23.154,1.04E+08
21623,16.353,-45.5,-27.506,8.93E+07
21624,17.403,-45.5,-27.694,9.36E+07
21625,19.442,-45.5,-26.344,9.51E+07
21626,11.962,-45.5,-29.68,8.06E+07
21627,13.083,-45.5,-29.983,8.99E+07
21628,15.297,-45.5,-28.945,9.21E+07
21629,7.2913,-45.5,-31.158,8.06E+07
21630,8.4695,-45.5,-31.604,8.85E+07
21631,10.811,-45.5,-30.899,8.99E+07
21632,3.6651,-45.5,-32.518,8.82E+07
21633,6.0843,-45.5,-32.162,9.00E+07
21634,-2.4453,-45.5,33.411,7.65E+07
21635,2.4453,-45.5,33.411,1.23E+08
21636,3.06E-17,-45.25,33.75,8.64E+07
21637,2.4077,-45.25,33.664,1.06E+08
21638,-2.4077,-45.25,33.664,8.11E+07
21639,-1.3926,-46.202,34.18,4.58E+07
21640,1.4723,-46.272,34.403,3.07E+07
21641,-7.2839,-45.5,32.699,1.07E+08
21642,-7.2288,-45.25,32.967,1.03E+08
21643,-4.8582,-45.25,33.398,8.87E+07
21644,-6.2862,-46.237,33.797,2.00E+07
21645,-3.8314,-46.202,34.001,2.20E+07
21646,-11.967,-45.5,31.29,1.60E+08
21647,-11.902,-45.289,31.54,1.39E+08
21648,-9.6151,-45.25,32.351,1.31E+08
21649,-8.6731,-46.237,33.265,5.04E+07
21650,-10.848,-46.375,32.167,7.58E+07
21651,-16.395,-45.5,29.214,1.86E+08
21652,-16.319,-45.287,29.5,1.66E+08
21653,-14.172,-45.25,30.63,1.63E+08
21654,-13.132,-46.375,31.294,1.04E+08
21655,-15.368,-46.375,30.276,1.12E+08
21656,-20.474,-45.5,26.515,1.87E+08
21657,-20.396,-45.285,26.845,1.66E+08
21658,-18.433,-45.25,28.271,1.73E+08
21659,-19.525,-46.485,27.674,1.32E+08
21660,-17.5,-46.375,29.079,1.24E+08
21661,-24.117,-45.5,23.251,1.75E+08
21662,-24.049,-45.284,23.631,1.52E+08
21663,-22.311,-45.251,25.323,1.64E+08
21664,-21.461,-46.485,26.18,1.33E+08
21665,-27.245,-45.5,19.492,1.55E+08
21666,-27.202,-45.282,19.924,1.37E+08
21667,-25.723,-45.251,21.848,1.45E+08
21668,-29.793,-45.5,15.318,1.32E+08
21669,-29.788,-45.28,15.802,1.17E+08
21670,-28.6,-45.251,17.917,1.27E+08
21671,-31.706,-45.5,10.816,1.05E+08
21672,-31.754,-45.278,11.35,9.52E+07
21673,-30.881,-45.251,13.614,1.05E+08
21674,-32.943,-45.5,6.0848,7.35E+07
21675,-33.059,-45.277,6.6613,6.93E+07
21676,-32.519,-45.252,9.0266,7.98E+07
21677,-33.478,-45.5,1.2235,4.45E+07
21678,-33.675,-45.275,1.8333,4.09E+07
21679,-33.479,-45.252,4.2516,5.32E+07
21680,-34.35,-45.876,3.0432,4.71E+07
21681,-33.299,-45.5,-3.6639,2.87E+07
21682,-33.59,-45.274,-3.0332,2.67E+07
21683,-33.742,-45.253,-0.61179,3.00E+07
21684,-34.037,-45.96,-1.8871,3.66E+07
21685,-34.439,-45.876,0.59953,3.88E+07
21686,-32.411,-45.5,-8.4733,4.66E+07
21687,-32.804,-45.272,-7.8371,3.51E+07
21688,-33.302,-45.253,-5.4623,2.86E+07
21689,-33.77,-45.96,-4.3177,3.57E+07
21690,-30.832,-45.5,-13.102,7.11E+07
21691,-31.336,-45.271,-12.478,5.59E+07
21692,-32.168,-45.254,-10.199,4.83E+07
21693,-28.595,-45.5,-17.452,9.12E+07
21694,-29.215,-45.27,-16.859,7.14E+07
21695,-30.364,-45.255,-14.723,6.63E+07
21696,-25.75,-45.5,-21.429,1.04E+08
21697,-26.485,-45.268,-20.89,8.55E+07
21698,-27.928,-45.255,-18.94,8.09E+07
21699,-22.355,-45.5,-24.95,1.10E+08
21700,-23.203,-45.267,-24.486,9.24E+07
21701,-24.911,-45.256,-22.762,8.93E+07
21702,-18.484,-45.5,-27.939,1.08E+08
21703,-19.437,-45.266,-27.572,9.20E+07
21704,-21.374,-45.257,-26.111,9.38E+07
21705,-19.425,-46.428,-27.724,8.34E+07
21706,-14.219,-45.5,-30.333,1.01E+08
21707,-15.266,-45.265,-30.084,8.84E+07
21708,-17.393,-45.258,-28.915,8.77E+07
21709,-17.385,-46.428,-29.073,7.87E+07
21710,-9.6513,-45.5,-32.08,9.31E+07
21711,-10.777,-45.263,-31.969,8.74E+07
21712,-13.049,-45.258,-31.116,8.41E+07
21713,-11.93,-45.439,-32.374,4.92E+07
21714,-10.957,-46.254,-32.236,6.10E+07
21715,-4.8776,-45.5,-33.143,9.08E+07
21716,-6.0635,-45.262,-33.188,8.38E+07
21717,-8.4337,-45.259,-32.67,8.43E+07
21718,-8.6157,-46.254,-32.941,5.55E+07
21719,-6.1797,-46.313,-33.573,4.84E+07
21720,-5.27E-14,-45.5,-33.5,9.04E+07
21721,-1.2231,-45.261,-33.717,9.04E+07
21722,-3.6431,-45.26,-33.542,8.45E+07
21723,-2.4339,-45.876,-34.406,4.82E+07
21724,-3.7604,-46.313,-33.929,4.75E+07
21725,-1.3715,-46.296,-34.023,5.16E+07
21726,4.8776,-45.5,-33.143,9.13E+07
21727,1.2231,-45.261,-33.717,8.98E+07
21728,3.6431,-45.26,-33.542,8.46E+07
21729,1.0738,-46.296,-34.023,4.74E+07
21730,9.6513,-45.5,-32.08,9.56E+07
21731,8.4337,-45.259,-32.67,9.14E+07
21732,6.0635,-45.262,-33.188,8.65E+07
21733,8.7281,-46.357,-32.981,4.76E+07
21734,14.219,-45.5,-30.333,9.64E+07
21735,13.049,-45.258,-31.116,9.18E+07
21736,10.777,-45.263,-31.969,9.24E+07
21737,11.07,-46.357,-32.277,4.86E+07
21738,12.954,-46.455,-31.252,5.28E+07
21739,18.484,-45.5,-27.939,9.30E+07
21740,17.393,-45.258,-28.915,8.87E+07
21741,15.266,-45.265,-30.084,9.16E+07
21742,15.168,-46.455,-30.214,5.35E+07
21743,17.385,-46.428,-29.073,5.41E+07
21744,22.355,-45.5,-24.95,8.94E+07
21745,21.374,-45.257,-26.111,8.49E+07
21746,19.437,-45.266,-27.572,8.64E+07
21747,19.425,-46.428,-27.724,5.30E+07
21748,25.75,-45.5,-21.429,8.92E+07
21749,24.911,-45.256,-22.762,8.05E+07
21750,23.203,-45.267,-24.486,8.41E+07
21751,28.595,-45.5,-17.452,9.22E+07
21752,27.928,-45.255,-18.94,8.19E+07
21753,26.485,-45.268,-20.89,8.14E+07
21754,30.832,-45.5,-13.102,9.88E+07
21755,30.364,-45.255,-14.723,8.19E+07
21756,29.215,-45.27,-16.859,8.39E+07
21757,32.411,-45.5,-8.4733,1.07E+08
21758,32.168,-45.254,-10.199,8.72E+07
21759,31.336,-45.271,-12.478,8.56E+07
21760,33.299,-45.5,-3.6639,1.11E+08
21761,33.302,-45.253,-5.4623,9.37E+07
21762,32.804,-45.272,-7.8371,9.11E+07
21763,33.478,-45.5,1.2235,1.08E+08
21764,33.742,-45.253,-0.61179,9.24E+07
21765,33.59,-45.274,-3.0332,9.37E+07
21766,35.402,-44.576,-1.8032,4.02E+07
21767,32.943,-45.5,6.0848,9.40E+07
21768,33.479,-45.252,4.2516,8.78E+07
21769,33.675,-45.275,1.8333,8.91E+07
21770,31.706,-45.5,10.816,6.66E+07
21771,32.519,-45.252,9.0266,6.90E+07
21772,33.059,-45.277,6.6613,7.73E+07
21773,29.793,-45.5,15.318,4.07E+07
21774,30.881,-45.251,13.614,4.39E+07
21775,31.754,-45.278,11.35,5.29E+07
21776,27.245,-45.5,19.492,8.91E+07
21777,28.6,-45.251,17.917,5.45E+07
21778,29.788,-45.28,15.802,4.12E+07
21779,24.117,-45.5,23.251,1.64E+08
21780,25.723,-45.251,21.848,1.14E+08
21781,27.202,-45.282,19.924,8.97E+07
21782,20.474,-45.5,26.515,2.31E+08
21783,22.311,-45.251,25.323,1.80E+08
21784,24.049,-45.284,23.631,1.52E+08
21785,21.503,-46.375,26.258,1.65E+08
21786,16.395,-45.5,29.214,2.64E+08
21787,18.433,-45.25,28.271,2.25E+08
21788,20.396,-45.285,26.845,2.07E+08
21789,17.5,-46.375,29.079,1.93E+08
21790,19.568,-46.375,27.753,1.94E+08
21791,11.967,-45.5,31.29,2.51E+08
21792,14.172,-45.25,30.63,2.33E+08
21793,16.319,-45.287,29.5,2.27E+08
21794,15.368,-46.375,30.276,1.97E+08
21795,13.456,-46.47,31.178,1.90E+08
21796,7.2839,-45.5,32.699,1.98E+08
21797,9.6151,-45.25,32.351,2.01E+08
21798,11.902,-45.289,31.54,2.14E+08
21799,8.3993,-46.408,33.239,1.24E+08
21800,10.788,-46.3,33.022,7.83E+07
21801,11.172,-46.47,32.051,1.71E+08
21802,4.8582,-45.25,33.398,1.44E+08
21803,7.2288,-45.25,32.967,1.64E+08
21804,3.9111,-46.272,34.224,8.08E+07
21805,6.0125,-46.408,33.77,8.30E+07
21806,2.4255,-45,33.913,1.01E+08
21807,-2.4255,-45,33.913,8.30E+07
21808,0,-44.125,34,9.60E+07
21809,-2.4255,-44.125,33.913,1.04E+08
21810,2.4255,-44.125,33.913,1.03E+08
21811,-1.2333,-44.782,35.628,3.80E+07
21812,1.1049,-44.757,35.638,3.33E+07
21813,-1.3926,-45.952,34.43,4.40E+07
21814,1.4723,-46.022,34.653,3.25E+07
21815,2.4255,-45,-33.913,9.42E+07
21816,-2.4255,-45,-33.913,9.00E+07
21817,-4.16E-15,-44.125,-34,8.55E+07
21818,-2.4255,-44.125,-33.913,8.00E+07
21819,-1.2113,-45.626,-34.701,5.10E+07
21820,-0.14883,-46.046,-34.318,5.27E+07
21821,7.2272,-45,33.223,1.46E+08
21822,4.8387,-44.125,33.654,1.29E+08
21823,3.8916,-46.022,34.48,6.27E+07
21824,5.993,-46.158,34.026,6.48E+07
21825,11.882,-45,31.856,1.82E+08
21826,9.5789,-44.125,32.623,1.65E+08
21827,7.2272,-44.125,33.223,1.50E+08
21828,8.3631,-46.158,33.51,9.05E+07
21829,10.752,-46.05,33.294,4.41E+07
21830,16.294,-45,29.841,1.93E+08
21831,14.124,-44.125,30.927,1.95E+08
21832,11.882,-44.125,31.856,1.82E+08
21833,13.025,-46.05,32.446,5.94E+07
21834,15.32,-46.125,30.573,1.61E+08
21835,13.408,-46.22,31.475,1.54E+08
21836,20.375,-45,27.218,1.73E+08
21837,18.382,-44.125,28.603,1.86E+08
21838,16.294,-44.125,29.841,1.92E+08
21839,19.228,-43.31,30.16,6.87E+07
21840,21.184,-44.365,28.647,9.15E+07
21841,17.449,-46.125,29.411,1.57E+08
21842,19.517,-46.125,28.085,1.58E+08
21843,24.042,-45,24.042,1.30E+08
21844,22.265,-44.125,25.695,1.48E+08
21845,20.375,-44.125,27.218,1.69E+08
21846,24.739,-43.801,25.728,1.12E+08
21847,23.125,-44.365,27.193,8.81E+07
21848,21.458,-46.125,26.631,1.41E+08
21849,27.218,-45,20.375,7.84E+07
21850,25.695,-44.125,22.265,9.80E+07
21851,24.042,-44.125,24.042,1.21E+08
21852,27.988,-43.561,22.196,1.18E+08
21853,26.454,-43.801,24.013,9.81E+07
21854,29.841,-45,16.294,3.98E+07
21855,28.603,-44.125,18.382,6.29E+07
21856,27.218,-44.125,20.375,7.64E+07
21857,29.442,-43.561,20.254,9.84E+07
21858,31.856,-45,11.882,4.91E+07
21859,30.927,-44.125,14.124,6.39E+07
21860,29.841,-44.125,16.294,5.76E+07
21861,32.663,-43.355,14.567,9.51E+07
21862,33.223,-45,7.2272,6.48E+07
21863,32.623,-44.125,9.5789,7.86E+07
21864,31.856,-44.125,11.882,6.96E+07
21865,33.51,-43.355,12.294,8.64E+07
21866,34.306,-42.879,10.213,8.65E+07
21867,34.595,-44.237,8.7487,6.66E+07
21868,33.913,-45,2.4255,7.27E+07
21869,33.654,-44.125,4.8387,8.23E+07
21870,33.223,-44.125,7.2272,8.41E+07
21871,35.527,-43.754,3.6245,5.80E+07
21872,35.11,-44.237,6.3786,6.59E+07
21873,33.913,-45,-2.4255,7.35E+07
21874,34,-44.125,2.08E-15,7.58E+07
21875,33.913,-44.125,2.4255,8.35E+07
21876,35.7,-43.754,1.2051,6.13E+07
21877,35.663,-44.326,-1.1915,4.48E+07
21878,33.223,-45,-7.2272,7.26E+07
21879,33.654,-44.125,-4.8387,7.25E+07
21880,33.913,-44.125,-2.4255,7.65E+07
21881,35.24,-43.496,-5.9885,4.35E+07
21882,35.49,-44.326,-3.6108,5.20E+07
21883,31.856,-45,-11.882,6.94E+07
21884,32.623,-44.125,-9.5789,6.66E+07
21885,33.223,-44.125,-7.2272,6.90E+07
21886,34.725,-43.496,-8.3586,5.28E+07
21887,34.069,-43.679,-10.791,3.69E+07
21888,29.841,-45,-16.294,7.22E+07
21889,30.927,-44.125,-14.124,6.65E+07
21890,31.856,-44.125,-11.882,6.40E+07
21891,32.139,-43.31,-15.673,3.60E+07
21892,33.221,-43.679,-13.064,5.01E+07
21893,30.95,-44.53,-17.52,2.27E+07
21894,27.218,-45,-20.375,7.65E+07
21895,28.603,-44.125,-18.382,6.69E+07
21896,29.841,-44.125,-16.294,6.66E+07
21897,29.787,-44.53,-19.649,3.07E+07
21898,24.042,-45,-24.042,8.20E+07
21899,25.695,-44.125,-22.265,6.89E+07
21900,27.218,-44.125,-20.375,6.70E+07
21901,25.319,-43.43,-25.147,2.16E+07
21902,27.177,-43.59,-23.225,3.22E+07
21903,28.334,-44.53,-21.591,4.20E+07
21904,20.375,-45,-27.218,8.96E+07
21905,22.265,-44.125,-25.695,8.54E+07
21906,24.042,-44.125,-24.042,6.99E+07
21907,23.604,-43.43,-26.863,2.95E+07
21908,16.294,-45,-29.841,9.58E+07
21909,18.382,-44.125,-28.603,9.03E+07
21910,20.375,-44.125,-27.218,8.96E+07
21911,19.918,-43.435,-29.692,3.07E+07
21912,21.662,-43.43,-28.316,3.64E+07
21913,17.787,-43.032,-31.004,2.71E+07
21914,18.378,-46.178,-28.767,5.45E+07
21915,11.882,-45,-31.856,9.89E+07
21916,14.124,-44.125,-30.927,9.49E+07
21917,16.294,-44.125,-29.841,9.18E+07
21918,13.586,-43.174,-33.07,2.91E+07
21919,15.658,-43.032,-32.167,3.07E+07
21920,14.032,-46.205,-31.071,5.62E+07
21921,7.2272,-45,-33.223,9.53E+07
21922,9.5789,-44.125,-32.623,9.68E+07
21923,11.882,-44.125,-31.856,9.49E+07
21924,11.314,-43.174,-33.918,2.89E+07
21925,9.6124,-44.034,-34.4,3.28E+07
21926,9.8756,-46.107,-32.943,5.14E+07
21927,2.4255,-44.125,-33.913,8.49E+07
21928,4.8387,-44.125,-33.654,9.01E+07
21929,7.2272,-44.125,-33.223,9.49E+07
21930,5.0673,-43.022,-35.425,2.71E+07
21931,7.2423,-44.034,-34.916,2.67E+07
21932,3.7433,-43.574,-34.626,5.17E+07
21933,-7.2272,-45,-33.223,8.46E+07
21934,-4.8387,-44.125,-33.654,7.76E+07
21935,-4.6067,-44.352,-35.398,2.95E+07
21936,-6.8677,-43.621,-33.998,4.96E+07
21937,-3.6306,-45.626,-34.527,4.35E+07
21938,-4.9571,-46.063,-34.051,4.53E+07
21939,-11.882,-45,-31.856,7.83E+07
21940,-9.5789,-44.125,-32.623,7.88E+07
21941,-7.2272,-44.125,-33.223,7.98E+07
21942,-10.735,-45.189,-33.041,4.81E+07
21943,-9.2378,-43.621,-33.482,4.89E+07
21944,-9.7632,-46.004,-32.903,5.28E+07
21945,-16.294,-45,-29.841,7.30E+07
21946,-14.124,-44.125,-30.927,6.79E+07
21947,-11.882,-44.125,-31.856,7.50E+07
21948,-15.839,-43.43,-32.044,3.71E+07
21949,-13.008,-45.189,-32.193,3.89E+07
21950,-20.375,-45,-27.218,7.44E+07
21951,-18.382,-44.125,-28.603,6.76E+07
21952,-16.294,-44.125,-29.841,6.91E+07
21953,-20.274,-43.673,-29.418,4.06E+07
21954,-17.968,-43.43,-30.882,2.75E+07
21955,-18.378,-46.178,-28.767,6.24E+07
21956,-24.042,-45,-24.042,7.25E+07
21957,-22.265,-44.125,-25.695,7.01E+07
21958,-20.375,-44.125,-27.218,6.98E+07
21959,-22.216,-43.673,-27.965,3.19E+07
21960,-23.584,-44.751,-26.761,3.63E+07
21961,-27.218,-45,-20.375,6.51E+07
21962,-25.695,-44.125,-22.265,6.82E+07
21963,-24.042,-44.125,-24.042,6.71E+07
21964,-27.877,-44.326,-22.261,4.89E+07
21965,-29.841,-45,-16.294,5.58E+07
21966,-28.603,-44.125,-18.382,6.36E+07
21967,-27.218,-44.125,-20.375,6.32E+07
21968,-30.263,-42.751,-19.129,5.97E+07
21969,-31.143,-43.799,-17.4,6.05E+07
21970,-29.33,-44.326,-20.32,4.26E+07
21971,-31.856,-45,-11.882,4.43E+07
21972,-30.927,-44.125,-14.124,5.93E+07
21973,-29.841,-44.125,-16.294,5.83E+07
21974,-33.111,-43.829,-13.351,6.28E+07
21975,-32.306,-43.799,-15.271,5.60E+07
21976,-33.223,-45,-7.2272,3.09E+07
21977,-32.623,-44.125,-9.5789,5.12E+07
21978,-31.856,-44.125,-11.882,5.21E+07
21979,-33.958,-43.829,-11.079,6.24E+07
21980,-34.598,-44.127,-8.7685,6.46E+07
21981,-33.913,-45,-2.4255,2.45E+07
21982,-33.654,-44.125,-4.8387,4.20E+07
21983,-33.223,-44.125,-7.2272,4.55E+07
21984,-35.113,-44.127,-6.3984,6.49E+07
21985,-35.443,-44.068,-4.3716,7.00E+07
21986,-34.126,-45.71,-3.6947,3.21E+07
21987,-33.913,-45,2.4255,3.77E+07
21988,-34,-44.125,2.08E-15,4.59E+07
21989,-33.913,-44.125,-2.4255,4.44E+07
21990,-35.753,-43.528,-0.17594,6.70E+07
21991,-34.299,-45.71,-1.2753,2.97E+07
21992,-34.701,-45.626,1.2113,3.09E+07
21993,-33.223,-45,7.2272,5.96E+07
21994,-33.654,-44.125,4.8387,6.01E+07
21995,-33.913,-44.125,2.4255,5.21E+07
21996,-35.126,-43.765,6.4548,6.92E+07
21997,-35.474,-43.756,4.2777,7.23E+07
21998,-34.527,-45.626,3.6306,4.30E+07
21999,-31.856,-45,11.882,7.99E+07
22000,-32.623,-44.125,9.5789,7.22E+07
22001,-33.223,-44.125,7.2272,6.90E+07
22002,-34.61,-43.765,8.8249,7.47E+07
22003,-33.925,-43.756,11.185,6.69E+07
22004,-29.841,-45,16.294,9.97E+07
22005,-30.927,-44.125,14.124,8.67E+07
22006,-31.856,-44.125,11.882,8.08E+07
22007,-33.078,-43.756,13.458,7.48E+07
22008,-32.174,-44.128,15.488,6.03E+07
22009,-27.218,-45,20.375,1.18E+08
22010,-28.603,-44.125,18.382,1.02E+08
22011,-29.841,-44.125,16.294,9.52E+07
22012,-29.878,-43.756,19.609,5.58E+07
22013,-31.012,-44.128,17.617,7.15E+07
22014,-24.042,-45,24.042,1.36E+08
22015,-25.695,-44.125,22.265,1.19E+08
22016,-27.218,-44.125,20.375,1.07E+08
22017,-26.929,-43.756,23.496,5.17E+07
22018,-28.424,-43.756,21.55,7.07E+07
22019,-25.297,-43.644,25.149,3.23E+07
22020,-20.375,-45,27.218,1.53E+08
22021,-22.265,-44.125,25.695,1.42E+08
22022,-24.042,-44.125,24.042,1.26E+08
22023,-21.569,-43.624,28.422,2.16E+07
22024,-23.581,-43.644,26.864,4.83E+07
22025,-21.416,-46.235,26.552,1.12E+08
22026,-16.294,-45,29.841,1.55E+08
22027,-18.382,-44.125,28.603,1.56E+08
22028,-20.375,-44.125,27.218,1.45E+08
22029,-19.628,-43.624,29.875,3.93E+07
22030,-17.334,-43.422,31.202,1.78E+07
22031,-19.474,-46.235,28.006,1.14E+08
22032,-17.449,-46.125,29.411,1.06E+08
22033,-11.882,-45,31.856,1.40E+08
22034,-14.124,-44.125,30.927,1.61E+08
22035,-16.294,-44.125,29.841,1.46E+08
22036,-12.595,-43.311,33.398,2.72E+07
22037,-15.205,-43.422,32.365,2.65E+07
22038,-13.085,-46.125,31.591,9.07E+07
22039,-15.32,-46.125,30.573,9.76E+07
22040,-7.2272,-45,33.223,1.12E+08
22041,-9.5789,-44.125,32.623,1.35E+08
22042,-11.882,-44.125,31.856,1.52E+08
22043,-10.322,-43.311,34.245,3.18E+07
22044,-8.1441,-44.722,34.681,2.45E+07
22045,-8.6369,-45.987,33.537,5.40E+07
22046,-10.812,-46.125,32.439,7.88E+07
22047,-4.8387,-44.125,33.654,1.12E+08
22048,-7.2272,-44.125,33.223,1.17E+08
22049,-3.6527,-44.782,35.455,3.01E+07
22050,-5.774,-44.722,35.197,2.91E+07
22051,-6.2668,-45.987,34.052,3.59E+07
22052,-3.8119,-45.952,34.257,3.95E+07
22053,-2.4255,-43.25,33.913,1.31E+08
22054,2.4255,-43.25,33.913,1.24E+08
22055,-3.06E-17,-43,33.75,1.18E+08
22056,0.12487,-41.727,35.811,5.58E+07
22057,-2.6719,-42.103,35.598,6.16E+07
22058,-1.2333,-43.907,35.628,4.84E+07
22059,1.1049,-43.882,35.638,4.68E+07
22060,1.6848,-42.6,34.067,1.01E+08
22061,-2.4255,-43.25,-33.913,8.43E+07
22062,2.4255,-43.25,-33.913,9.35E+07
22063,1.2231,-42.989,-33.717,7.51E+07
22064,-1.2231,-42.989,-33.717,7.93E+07
22065,-1.9484,-41.574,-35.719,3.34E+07
22066,-2.1873,-43.477,-35.571,3.53E+07
22067,-8.45E-02,-41.881,-34.093,6.53E+07
22068,1.324,-42.699,-34.799,5.09E+07
22069,-1.2113,-44.751,-34.701,4.45E+07
22070,-7.2272,-43.25,33.223,1.48E+08
22071,-2.4077,-43,33.664,1.21E+08
22072,-4.8582,-43,33.398,1.25E+08
22073,-5.0913,-42.103,35.425,5.08E+07
22074,-3.6527,-43.907,35.455,4.43E+07
22075,-5.774,-43.847,35.197,4.19E+07
22076,-11.882,-43.25,31.856,1.71E+08
22077,-9.6151,-43,32.351,1.72E+08
22078,-7.2288,-43,32.967,1.33E+08
22079,-10.322,-42.436,34.245,4.43E+07
22080,-7.4614,-42.103,34.909,5.74E+07
22081,-8.1441,-43.847,34.681,4.63E+07
22082,-9.134,-41.987,32.578,1.19E+08
22083,-16.294,-43.25,29.841,1.75E+08
22084,-14.172,-43,30.63,1.72E+08
22085,-11.902,-42.961,31.54,1.89E+08
22086,-12.595,-42.436,33.398,4.78E+07
22087,-15.205,-42.547,32.365,4.68E+07
22088,-20.375,-43.25,27.218,1.54E+08
22089,-18.433,-43,28.271,1.57E+08
22090,-16.319,-42.963,29.5,1.61E+08
22091,-19.628,-42.749,29.875,3.90E+07
22092,-17.334,-42.547,31.202,4.59E+07
22093,-17.631,-41.875,29.33,1.15E+08
22094,-24.042,-43.25,24.042,1.29E+08
22095,-22.311,-42.999,25.323,1.40E+08
22096,-20.396,-42.965,26.845,1.49E+08
22097,-21.569,-42.749,28.422,3.48E+07
22098,-23.581,-42.769,26.864,4.54E+07
22099,-22.431,-41.942,26.768,7.08E+07
22100,-27.218,-43.25,20.375,1.03E+08
22101,-25.723,-42.999,21.848,1.20E+08
22102,-24.049,-42.966,23.631,1.27E+08
22103,-26.929,-42.881,23.496,4.45E+07
22104,-28.424,-42.881,21.55,6.03E+07
22105,-25.297,-42.769,25.149,3.24E+07
22106,-25.826,-41.797,22.424,9.82E+07
22107,-29.841,-43.25,16.294,8.88E+07
22108,-28.6,-42.999,17.917,1.06E+08
22109,-27.202,-42.968,19.924,1.12E+08
22110,-29.878,-42.881,19.609,4.55E+07
22111,-31.012,-43.253,17.617,5.90E+07
22112,-28.892,-41.913,18.304,8.55E+07
22113,-31.856,-43.25,11.882,8.13E+07
22114,-30.881,-42.999,13.614,1.01E+08
22115,-29.788,-42.97,15.802,1.03E+08
22116,-33.078,-42.881,13.458,6.22E+07
22117,-32.174,-43.253,15.488,4.77E+07
22118,-30.054,-41.913,16.175,7.87E+07
22119,-31.134,-41.322,14.172,7.90E+07
22120,-33.223,-43.25,7.2272,7.81E+07
22121,-32.519,-42.998,9.0266,9.43E+07
22122,-31.754,-42.972,11.35,9.79E+07
22123,-34.61,-42.89,8.8249,6.01E+07
22124,-33.925,-42.881,11.185,5.15E+07
22125,-32.279,-42.169,10.59,7.86E+07
22126,-33.913,-43.25,2.4255,7.05E+07
22127,-33.479,-42.998,4.2516,9.72E+07
22128,-33.059,-42.973,6.6613,9.29E+07
22129,-35.126,-42.89,6.4548,5.75E+07
22130,-35.474,-42.881,4.2777,6.16E+07
22131,-34.459,-41.486,3.7407,5.91E+07
22132,-33.749,-41.846,5.3577,6.46E+07
22133,-33.913,-43.25,-2.4255,6.40E+07
22134,-33.742,-42.997,-0.61179,8.02E+07
22135,-33.675,-42.975,1.8333,9.07E+07
22136,-35.753,-42.653,-0.17594,6.09E+07
22137,-35.616,-43.193,-1.9523,5.84E+07
22138,-35.647,-42.881,1.8584,5.85E+07
22139,-34.632,-41.486,1.3214,5.14E+07
22140,-34.299,-44.835,-1.2753,4.52E+07
22141,-34.701,-44.751,1.2113,4.19E+07
22142,-33.223,-43.25,-7.2272,6.71E+07
22143,-33.302,-42.997,-5.4623,8.21E+07
22144,-33.59,-42.976,-3.0332,7.98E+07
22145,-35.365,-41.631,-5.648,6.95E+07
22146,-35.113,-43.252,-6.3984,5.17E+07
22147,-35.443,-43.193,-4.3716,5.57E+07
22148,-34.122,-42.088,-4.3921,4.88E+07
22149,-34.126,-44.835,-3.6947,4.38E+07
22150,-31.856,-43.25,-11.882,7.18E+07
22151,-32.168,-42.996,-10.199,9.09E+07
22152,-32.804,-42.978,-7.8371,8.68E+07
22153,-33.958,-42.954,-11.079,5.10E+07
22154,-34.849,-41.631,-8.0181,7.17E+07
22155,-34.598,-43.252,-8.7685,5.42E+07
22156,-32.852,-41.799,-9.5737,5.59E+07
22157,-29.841,-43.25,-16.294,7.10E+07
22158,-30.364,-42.995,-14.723,8.39E+07
22159,-31.336,-42.979,-12.478,9.25E+07
22160,-33.111,-42.954,-13.351,5.26E+07
22161,-32.306,-42.924,-15.271,4.46E+07
22162,-31.558,-41.731,-13.808,5.30E+07
22163,-27.218,-43.25,-20.375,6.75E+07
22164,-27.928,-42.995,-18.94,8.42E+07
22165,-29.215,-42.98,-16.859,8.35E+07
22166,-30.263,-41.876,-19.129,4.98E+07
22167,-31.143,-42.924,-17.4,5.16E+07
22168,-29.33,-43.451,-20.32,3.25E+07
22169,-24.042,-43.25,-24.042,6.55E+07
22170,-24.911,-42.994,-22.762,8.16E+07
22171,-26.485,-42.982,-20.89,8.34E+07
22172,-27.191,-41.158,-23.355,4.99E+07
22173,-25.299,-43.876,-25.046,2.31E+07
22174,-27.877,-43.451,-22.261,4.29E+07
22175,-25.276,-42.57,-24.313,2.50E+07
22176,-26.496,-41.915,-21.951,5.41E+07
22177,-20.375,-43.25,-27.218,6.36E+07
22178,-21.374,-42.993,-26.111,7.67E+07
22179,-23.203,-42.983,-24.486,7.99E+07
22180,-22.216,-42.798,-27.965,2.74E+07
22181,-23.584,-43.876,-26.761,3.04E+07
22182,-23.561,-42.57,-26.028,3.03E+07
22183,-16.294,-43.25,-29.841,6.37E+07
22184,-17.393,-42.992,-28.915,7.24E+07
22185,-19.437,-42.984,-27.572,7.56E+07
22186,-20.274,-42.798,-29.418,3.33E+07
22187,-17.968,-42.555,-30.882,2.35E+07
22188,-18.882,-41.624,-28.699,5.28E+07
22189,-11.882,-43.25,-31.856,7.25E+07
22190,-13.049,-42.992,-31.116,6.71E+07
22191,-15.266,-42.985,-30.084,7.11E+07
22192,-15.839,-42.555,-32.044,3.32E+07
22193,-13.445,-42.453,-33.112,2.61E+07
22194,-14.416,-41.751,-31.019,5.59E+07
22195,-13.008,-44.314,-32.193,3.36E+07
22196,-7.2272,-43.25,-33.223,8.02E+07
22197,-8.4337,-42.991,-32.67,7.45E+07
22198,-10.777,-42.987,-31.969,7.18E+07
22199,-11.172,-42.453,-33.959,3.65E+07
22200,-10.735,-44.314,-33.041,4.34E+07
22201,-9.2378,-42.746,-33.482,4.76E+07
22202,-3.6431,-42.99,-33.542,7.69E+07
22203,-6.0635,-42.988,-33.188,7.25E+07
22204,-4.3677,-41.574,-35.546,2.95E+07
22205,-4.6067,-43.477,-35.398,3.16E+07
22206,-5.145,-41.654,-33.806,5.95E+07
22207,-6.8677,-42.746,-33.998,4.93E+07
22208,-3.6306,-44.751,-34.527,4.07E+07
22209,7.2272,-43.25,-33.223,1.02E+08
22210,6.0635,-42.988,-33.188,8.66E+07
22211,3.6431,-42.99,-33.542,8.03E+07
22212,5.0673,-42.147,-35.425,3.64E+07
22213,7.2423,-43.159,-34.916,3.44E+07
22214,3.7433,-42.699,-34.626,5.69E+07
22215,5.9622,-41.623,-33.642,6.97E+07
22216,11.882,-43.25,-31.856,1.04E+08
22217,10.777,-42.987,-31.969,9.64E+07
22218,8.4337,-42.991,-32.67,8.85E+07
22219,11.314,-42.299,-33.918,3.28E+07
22220,9.6124,-43.159,-34.4,3.59E+07
22221,9.9715,-41.906,-32.793,7.16E+07
22222,16.294,-43.25,-29.841,9.99E+07
22223,15.266,-42.985,-30.084,9.00E+07
22224,13.049,-42.992,-31.116,9.55E+07
22225,13.586,-42.299,-33.07,3.25E+07
22226,15.658,-42.157,-32.167,3.39E+07
22227,14.37,-41.537,-31.106,7.04E+07
22228,20.375,-43.25,-27.218,9.67E+07
22229,19.437,-42.984,-27.572,8.07E+07
22230,17.393,-42.992,-28.915,8.70E+07
22231,19.918,-42.56,-29.692,3.28E+07
22232,17.787,-42.157,-31.004,3.14E+07
22233,18.458,-41.391,-28.98,6.86E+07
22234,24.042,-43.25,-24.042,8.08E+07
22235,23.203,-42.983,-24.486,7.45E+07
22236,21.374,-42.993,-26.111,8.04E+07
22237,21.859,-42.56,-28.238,3.34E+07
22238,23.604,-42.555,-26.863,3.74E+07
22239,23.324,-41.78,-25.3,6.46E+07
22240,27.218,-43.25,-20.375,6.46E+07
22241,26.485,-42.982,-20.89,6.42E+07
22242,24.911,-42.994,-22.762,6.14E+07
22243,25.319,-42.555,-25.147,2.32E+07
22244,27.177,-42.715,-23.225,2.83E+07
22245,24.577,-40.551,-22.015,9.18E+07
22246,25.039,-41.78,-23.585,4.91E+07
22247,27.038,-41.444,-21.92,4.43E+07
22248,29.841,-43.25,-16.294,6.27E+07
22249,29.215,-42.98,-16.859,6.56E+07
22250,27.928,-42.995,-18.94,6.32E+07
22251,30.977,-42.435,-17.802,3.99E+07
22252,28.631,-42.715,-21.283,2.42E+07
22253,30.068,-41.067,-19.521,3.67E+07
22254,29.787,-43.655,-19.649,2.95E+07
22255,29.405,-41.437,-17.558,5.34E+07
22256,28.491,-41.444,-19.978,4.13E+07
22257,31.856,-43.25,-11.882,6.14E+07
22258,31.336,-42.979,-12.478,7.17E+07
22259,30.364,-42.995,-14.723,6.71E+07
22260,32.139,-42.435,-15.673,3.38E+07
22261,33.221,-42.804,-13.064,4.61E+07
22262,30.95,-43.655,-17.52,2.37E+07
22263,31.528,-41.55,-13.061,5.77E+07
22264,33.223,-43.25,-7.2272,6.61E+07
22265,32.804,-42.978,-7.8371,7.98E+07
22266,32.168,-42.996,-10.199,7.33E+07
22267,34.725,-42.621,-8.3586,5.01E+07
22268,34.069,-42.804,-10.791,3.45E+07
22269,33.237,-40.971,-8.7715,4.82E+07
22270,33.54,-42.01,-9.7663,2.90E+07
22271,33.913,-43.25,-2.4255,7.73E+07
22272,33.59,-42.976,-3.0332,9.21E+07
22273,33.302,-42.997,-5.4623,8.45E+07
22274,35.24,-42.621,-5.9885,3.87E+07
22275,35.49,-43.451,-3.6108,4.92E+07
22276,34.067,-42.101,-4.4526,4.85E+07
22277,33.913,-43.25,2.4255,9.26E+07
22278,33.675,-42.975,1.8333,1.10E+08
22279,33.742,-42.997,-0.61179,9.75E+07
22280,35.7,-42.879,1.2051,6.09E+07
22281,35.82,-40.97,-1.144,5.69E+07
22282,35.663,-43.451,-1.1915,4.13E+07
22283,34.498,-41.878,1.5207,4.60E+07
22284,33.223,-43.25,7.2272,1.04E+08
22285,33.059,-42.973,6.6613,1.25E+08
22286,33.479,-42.998,4.2516,1.18E+08
22287,35.527,-42.879,3.6245,5.40E+07
22288,35.11,-43.362,6.3786,6.68E+07
22289,34.325,-41.878,3.94,5.00E+07
22290,33.967,-41.871,6.2471,5.53E+07
22291,31.856,-43.25,11.882,9.74E+07
22292,31.754,-42.972,11.35,1.20E+08
22293,32.519,-42.998,9.0266,1.27E+08
22294,33.51,-42.48,12.294,8.81E+07
22295,34.306,-42.004,10.213,8.48E+07
22296,34.595,-43.362,8.7487,6.37E+07
22297,32.453,-41.463,10.984,6.87E+07
22298,33.451,-41.871,8.6172,5.50E+07
22299,29.841,-43.25,16.294,8.39E+07
22300,29.788,-42.97,15.802,1.15E+08
22301,30.881,-42.999,13.614,1.12E+08
22302,32.663,-42.48,14.567,8.86E+07
22303,31.702,-42.046,16.521,9.26E+07
22304,30.57,-41.639,15.538,7.47E+07
22305,27.218,-43.25,20.375,8.71E+07
22306,27.202,-42.968,19.924,1.12E+08
22307,28.6,-42.999,17.917,1.12E+08
22308,29.442,-42.686,20.254,8.28E+07
22309,30.539,-42.046,18.65,1.00E+08
22310,28.399,-42.165,18.999,8.39E+07
22311,24.042,-43.25,24.042,1.20E+08
22312,24.049,-42.966,23.631,1.44E+08
22313,25.723,-42.999,21.848,1.23E+08
22314,27.988,-42.686,22.196,9.60E+07
22315,26.454,-42.926,24.013,7.54E+07
22316,25.67,-41.785,22.603,1.15E+08
22317,20.375,-43.25,27.218,1.63E+08
22318,20.396,-42.965,26.845,1.96E+08
22319,22.311,-42.999,25.323,1.65E+08
22320,24.739,-42.926,25.728,8.80E+07
22321,23.125,-43.49,27.193,6.26E+07
22322,22.286,-42.236,26.224,1.29E+08
22323,16.294,-43.25,29.841,1.89E+08
22324,16.319,-42.963,29.5,2.25E+08
22325,18.433,-43,28.271,2.17E+08
22326,19.228,-42.435,30.16,5.10E+07
22327,21.184,-43.49,28.647,7.34E+07
22328,20.344,-42.236,27.678,1.51E+08
22329,11.882,-43.25,31.856,1.81E+08
22330,11.902,-42.961,31.54,2.16E+08
22331,14.172,-43,30.63,2.30E+08
22332,17.099,-42.435,31.322,5.94E+07
22333,13.305,-42.44,33.163,2.76E+07
22334,15.028,-41.247,32.536,3.76E+07
22335,12.08,-41.44,31.799,1.76E+08
22336,14.328,-41.463,31.012,1.84E+08
22337,13.025,-45.175,32.446,6.19E+07
22338,7.2272,-43.25,33.223,1.49E+08
22339,7.2288,-43,32.967,1.75E+08
22340,9.6151,-43,32.351,2.01E+08
22341,11.032,-42.44,34.01,3.01E+07
22342,7.9825,-42.599,34.795,4.40E+07
22343,9.807,-41.44,32.646,1.63E+08
22344,10.752,-45.175,33.294,4.65E+07
22345,8.126,-41.879,32.941,1.57E+08
22346,2.4077,-43,33.664,1.25E+08
22347,4.8582,-43,33.398,1.58E+08
22348,5.6124,-42.599,35.311,2.80E+07
22349,3.5242,-43.882,35.465,3.85E+07
22350,4.1042,-42.6,33.894,1.12E+08
22351,3.8916,-45.147,34.48,7.35E+07
22352,2.4453,-42.75,33.411,1.51E+08
22353,-2.4453,-42.75,33.411,1.19E+08
22354,6.12E-17,-42.75,33,1.05E+08
22355,4.01E-15,-42.5,32.75,1.05E+08
22356,-2.3829,-42.451,32.588,7.25E+07
22357,0.12487,-41.477,35.561,7.82E+07
22358,-2.6719,-41.853,35.348,8.89E+07
22359,1.1957,-40.301,32.705,1.39E+08
22360,-1.1957,-40.301,32.705,9.27E+07
22361,1.6848,-42.35,33.817,1.06E+08
22362,7.2839,-42.75,32.699,2.08E+08
22363,2.4388,-42.75,32.822,1.39E+08
22364,4.9194,-42.75,32.631,2.07E+08
22365,5.6319,-42.349,35.055,5.18E+07
22366,4.1236,-42.35,33.638,1.39E+08
22367,5.7753,-41.629,33.201,1.63E+08
22368,11.967,-42.75,31.29,2.51E+08
22369,9.7286,-42.75,31.532,2.99E+08
22370,7.3062,-42.75,32.099,2.35E+08
22371,9.8432,-41.19,32.375,1.97E+08
22372,8.1622,-41.629,32.67,1.91E+08
22373,16.395,-42.75,29.214,2.58E+08
22374,14.32,-42.75,29.729,3.40E+08
22375,12.013,-42.75,30.659,3.13E+08
22376,17.146,-42.185,31.025,6.21E+07
22377,12.127,-41.19,31.501,2.11E+08
22378,14.375,-41.213,30.715,2.19E+08
22379,20.474,-42.75,26.515,2.20E+08
22380,18.591,-42.75,27.261,3.09E+08
22381,16.453,-42.75,28.532,3.33E+08
22382,19.279,-42.185,29.828,5.11E+07
22383,20.395,-41.986,27.346,1.82E+08
22384,16.508,-41.213,29.518,2.10E+08
22385,18.654,-41.067,28.252,2.19E+08
22386,24.117,-42.75,23.251,1.66E+08
22387,22.446,-42.75,24.183,2.14E+08
22388,20.527,-42.75,25.766,2.78E+08
22389,24.784,-42.676,25.355,9.03E+07
22390,22.331,-41.986,25.852,1.50E+08
22391,23.999,-41.535,23.945,1.57E+08
22392,27.245,-42.75,19.492,1.45E+08
22393,25.798,-42.75,20.566,1.31E+08
22394,24.143,-42.75,22.423,1.88E+08
22395,28.015,-42.436,21.778,1.01E+08
22396,25.697,-41.535,22.185,1.34E+08
22397,26.972,-41.915,20.523,1.20E+08
22398,29.793,-42.75,15.318,1.41E+08
22399,28.574,-42.75,16.489,1.23E+08
22400,27.221,-42.75,18.577,1.25E+08
22401,28.154,-42.5,16.726,1.20E+08
22402,30.536,-41.796,18.185,1.11E+08
22403,29.404,-41.389,17.202,1.07E+08
22404,28.395,-41.915,18.534,1.16E+08
22405,31.706,-42.75,10.816,1.44E+08
22406,30.709,-42.75,12.044,1.39E+08
22407,29.692,-42.75,14.314,1.20E+08
22408,30.31,-42.5,12.396,1.42E+08
22409,32.615,-42.23,14.056,1.01E+08
22410,29.831,-40.301,13.493,1.16E+08
22411,31.558,-41.213,12.746,8.90E+07
22412,30.522,-41.389,15.027,1.02E+08
22413,32.943,-42.75,6.0848,1.44E+08
22414,32.158,-42.75,7.3305,1.56E+08
22415,31.499,-42.75,9.7294,1.44E+08
22416,31.495,-40.301,8.9527,1.41E+08
22417,32.347,-41.213,10.431,9.69E+07
22418,33.345,-41.621,8.0644,8.34E+07
22419,33.478,-42.75,1.2235,1.25E+08
22420,32.888,-42.75,2.4544,1.50E+08
22421,32.602,-42.75,4.9258,1.48E+08
22422,32.605,-42.5,3.0276,1.66E+08
22423,32.471,-40.301,4.2166,1.44E+08
22424,34.147,-41.628,3.3526,7.55E+07
22425,33.789,-41.621,5.6597,8.13E+07
22426,33.299,-42.75,-3.6639,1.05E+08
22427,32.882,-42.75,-2.4753,1.39E+08
22428,32.977,-42.75,1.07E-02,1.38E+08
22429,35.559,-40.72,-1.7557,6.03E+07
22430,35.402,-43.201,-1.8032,4.25E+07
22431,32.739,-40.301,-0.61174,1.39E+08
22432,33.979,-41.851,-2.645,6.79E+07
22433,34.237,-41.628,0.90891,6.42E+07
22434,32.411,-42.75,-8.4733,9.12E+07
22435,32.14,-42.75,-7.3484,1.22E+08
22436,32.614,-42.75,-4.906,1.31E+08
22437,32.07,-42.5,-6.6028,1.41E+08
22438,34.885,-42.371,-6.6116,3.92E+07
22439,32.293,-40.301,-5.4271,1.30E+08
22440,33.712,-41.851,-5.0756,6.39E+07
22441,33.397,-40.721,-7.0244,6.17E+07
22442,30.832,-42.75,-13.102,7.82E+07
22443,30.681,-42.75,-12.056,1.05E+08
22444,31.522,-42.75,-9.7142,1.15E+08
22445,33.61,-42.554,-11.41,2.71E+07
22446,32.779,-40.721,-9.3903,5.78E+07
22447,31.918,-41.3,-11.408,6.55E+07
22448,33.081,-41.76,-10.385,3.60E+07
22449,28.595,-42.75,-17.452,6.97E+07
22450,28.536,-42.75,-16.492,8.68E+07
22451,29.725,-42.75,-14.306,9.87E+07
22452,28.753,-42.5,-15.659,1.02E+08
22453,31.572,-42.185,-16.27,2.30E+07
22454,29.312,-40.301,-14.601,1.11E+08
22455,30,-41.187,-16.026,5.52E+07
22456,30.961,-41.3,-13.658,6.15E+07
22457,25.75,-42.75,-21.429,6.17E+07
22458,25.754,-42.75,-20.558,6.82E+07
22459,27.262,-42.75,-18.579,8.40E+07
22460,26.132,-42.5,-19.722,8.23E+07
22461,26.842,-40.301,-18.759,9.61E+07
22462,25.351,-40.301,-20.629,8.92E+07
22463,28.726,-41.187,-18.113,5.31E+07
22464,27.813,-41.194,-20.534,3.70E+07
22465,22.355,-42.75,-24.95,6.20E+07
22466,22.397,-42.75,-24.162,5.23E+07
22467,24.19,-42.75,-22.437,6.06E+07
22468,22.941,-42.5,-23.355,5.93E+07
22469,23.787,-40.301,-22.509,8.33E+07
22470,24.25,-41.53,-24.078,4.16E+07
22471,18.484,-42.75,-27.939,7.31E+07
22472,18.541,-42.75,-27.226,5.16E+07
22473,20.576,-42.75,-25.794,5.74E+07
22474,19.25,-42.5,-26.477,5.50E+07
22475,20.964,-42.31,-28.648,2.08E+07
22476,22.708,-42.305,-27.272,2.24E+07
22477,20.101,-40.098,-25.855,9.03E+07
22478,19.504,-41.141,-27.936,5.06E+07
22479,22.428,-41.53,-25.71,4.81E+07
22480,14.219,-42.75,-30.333,8.52E+07
22481,14.272,-42.75,-29.679,5.57E+07
22482,16.502,-42.75,-28.575,5.79E+07
22483,15.14,-42.5,-29.022,5.55E+07
22484,16.794,-41.907,-31.31,2.94E+07
22485,15.506,-41.287,-30.249,5.46E+07
22486,17.465,-41.141,-29.285,5.62E+07
22487,9.6513,-42.75,-32.08,8.34E+07
22488,9.6862,-42.75,-31.467,5.98E+07
22489,12.058,-42.75,-30.717,6.14E+07
22490,12.508,-42.049,-33.251,3.28E+07
22491,11.166,-41.656,-32.126,6.10E+07
22492,13.291,-41.287,-31.287,6.01E+07
22493,4.8776,-42.75,-33.143,7.23E+07
22494,4.8859,-42.75,-32.552,5.32E+07
22495,7.3446,-42.75,-32.172,5.26E+07
22496,8.4649,-42.909,-34.438,3.17E+07
22497,5.8133,-40.877,-32.201,8.59E+07
22498,8.824,-41.656,-32.831,5.30E+07
22499,7.1848,-41.373,-33.164,5.37E+07
22500,5.27E-14,-42.75,-33.5,7.18E+07
22501,2.4666,-42.75,-32.908,5.02E+07
22502,3.394,-40.877,-32.557,7.99E+07
22503,1.1382,-41.631,-33.798,5.10E+07
22504,2.5467,-42.449,-34.504,4.00E+07
22505,4.7655,-41.373,-33.52,4.71E+07
22506,-4.8776,-42.75,-33.143,7.30E+07
22507,-2.4666,-42.75,-32.908,6.12E+07
22508,2.13E-02,-42.75,-32.908,5.36E+07
22509,-3.1711,-41.324,-35.425,2.51E+07
22510,-1.3072,-41.631,-33.798,5.52E+07
22511,-3.9483,-41.404,-33.684,5.51E+07
22512,-9.6513,-42.75,-32.08,7.10E+07
22513,-7.3446,-42.75,-32.172,7.44E+07
22514,-4.8859,-42.75,-32.552,6.04E+07
22515,-8.8042,-41.114,-32.83,5.43E+07
22516,-6.3676,-41.404,-33.328,5.16E+07
22517,-8.0903,-42.496,-33.52,4.04E+07
22518,-14.219,-42.75,-30.333,7.66E+07
22519,-12.058,-42.75,-30.717,9.17E+07
22520,-9.6862,-42.75,-31.467,7.64E+07
22521,-10.7,-42.5,-30.934,9.37E+07
22522,-12.366,-42.203,-33.293,1.36E+07
22523,-12.268,-40.005,-30.359,1.12E+08
22524,-11.146,-41.114,-32.125,5.34E+07
22525,-13.338,-41.501,-31.201,5.86E+07
22526,-10.432,-42.496,-32.815,3.73E+07
22527,-18.484,-42.75,-27.939,8.67E+07
22528,-16.502,-42.75,-28.575,1.11E+08
22529,-14.272,-42.75,-29.679,9.83E+07
22530,-15.14,-42.5,-29.022,1.18E+08
22531,-16.975,-42.305,-31.187,1.20E+07
22532,-16.498,-40.2,-28.286,1.25E+08
22533,-15.552,-41.501,-30.163,6.30E+07
22534,-17.889,-41.374,-29.005,6.16E+07
22535,-22.355,-42.75,-24.95,9.39E+07
22536,-20.576,-42.75,-25.794,1.20E+08
22537,-18.541,-42.75,-27.226,1.15E+08
22538,-19.25,-42.5,-26.477,1.33E+08
22539,-21.12,-42.5,-24.986,1.35E+08
22540,-21.32,-42.548,-28.374,1.83E+07
22541,-20.4,-40.249,-25.615,1.34E+08
22542,-22.665,-42.32,-26.438,3.76E+07
22543,-19.929,-41.374,-27.655,6.35E+07
22544,-25.75,-42.75,-21.429,9.84E+07
22545,-24.19,-42.75,-22.437,1.21E+08
22546,-22.397,-42.75,-24.162,1.24E+08
22547,-22.941,-42.5,-23.355,1.38E+08
22548,-26.402,-40.908,-23.848,5.25E+07
22549,-23.938,-40.109,-22.344,1.27E+08
22550,-24.486,-42.32,-24.806,3.72E+07
22551,-25.707,-41.665,-22.444,6.89E+07
22552,-28.595,-42.75,-17.452,9.89E+07
22553,-27.262,-42.75,-18.579,1.17E+08
22554,-25.754,-42.75,-20.558,1.23E+08
22555,-26.132,-42.5,-19.722,1.35E+08
22556,-29.584,-41.626,-19.684,5.94E+07
22557,-28.652,-43.201,-20.875,4.04E+07
22558,-26.842,-40.301,-18.759,1.20E+08
22559,-27.271,-41.665,-20.565,6.82E+07
22560,-30.832,-42.75,-13.102,1.05E+08
22561,-29.725,-42.75,-14.306,1.06E+08
22562,-28.536,-42.75,-16.492,1.16E+08
22563,-28.753,-42.5,-15.659,1.24E+08
22564,-30.858,-41.626,-17.596,5.49E+07
22565,-31.738,-42.674,-15.868,5.85E+07
22566,-28.116,-40.301,-16.672,1.18E+08
22567,-29.312,-40.301,-14.601,1.07E+08
22568,-30.412,-39.466,-15.461,7.41E+07
22569,-30.991,-41.481,-14.404,7.09E+07
22570,-32.411,-42.75,-8.4733,1.09E+08
22571,-31.522,-42.75,-9.7142,1.01E+08
22572,-30.681,-42.75,-12.056,1.13E+08
22573,-30.747,-42.5,-11.254,1.17E+08
22574,-33.5,-42.704,-11.698,6.71E+07
22575,-31.947,-41.481,-12.154,7.61E+07
22576,-32.394,-41.549,-10.192,8.06E+07
22577,-33.299,-42.75,-3.6639,1.01E+08
22578,-32.614,-42.75,-4.906,9.40E+07
22579,-32.14,-42.75,-7.3484,9.69E+07
22580,-32.07,-42.5,-6.6028,1.00E+08
22581,-35.009,-41.381,-6.271,8.67E+07
22582,-32.293,-40.301,-5.4271,8.96E+07
22583,-33.767,-41.838,-5.0152,7.49E+07
22584,-33.012,-41.549,-7.8266,7.68E+07
22585,-33.478,-42.75,1.2235,1.08E+08
22586,-32.977,-42.75,1.07E-02,9.70E+07
22587,-32.882,-42.75,-2.4753,9.08E+07
22588,-32.694,-42.5,-1.8074,9.52E+07
22589,-35.492,-42.403,-0.78768,7.21E+07
22590,-35.355,-42.943,-2.564,6.98E+07
22591,-35.53,-40.756,-2.1415,8.73E+07
22592,-32.739,-40.301,-0.61174,8.88E+07
22593,-34.034,-41.838,-2.5845,7.03E+07
22594,-34.371,-41.236,0.70961,6.91E+07
22595,-32.943,-42.75,6.0848,1.14E+08
22596,-32.602,-42.75,4.9258,1.20E+08
22597,-32.888,-42.75,2.4544,1.07E+08
22598,-32.605,-42.5,3.0276,1.15E+08
22599,-34.282,-41.236,3.1533,8.12E+07
22600,-33.572,-41.596,4.7703,8.75E+07
22601,-31.706,-42.75,10.816,1.14E+08
22602,-31.499,-42.75,9.7294,1.31E+08
22603,-32.158,-42.75,7.3305,1.16E+08
22604,-34.504,-42.64,8.272,6.84E+07
22605,-31.495,-40.301,8.9527,1.35E+08
22606,-33.205,-40.105,8.1193,8.37E+07
22607,-33.128,-41.596,7.175,8.42E+07
22608,-32.173,-41.919,10.037,9.46E+07
22609,-29.793,-42.75,15.318,1.19E+08
22610,-29.692,-42.75,14.314,1.47E+08
22611,-30.709,-42.75,12.044,1.35E+08
22612,-33.03,-42.631,12.947,6.20E+07
22613,-31.086,-41.072,13.661,9.27E+07
22614,-31.383,-41.919,12.351,9.94E+07
22615,-27.245,-42.75,19.492,1.25E+08
22616,-27.221,-42.75,18.577,1.55E+08
22617,-28.574,-42.75,16.489,1.49E+08
22618,-28.888,-41.663,17.839,9.70E+07
22619,-29.968,-41.072,15.836,9.69E+07
22620,-24.117,-42.75,23.251,1.36E+08
22621,-24.143,-42.75,22.423,1.64E+08
22622,-25.798,-42.75,20.566,1.59E+08
22623,-28.451,-42.631,21.132,4.29E+07
22624,-27.465,-41.663,19.828,1.03E+08
22625,-25.853,-41.547,22.006,1.03E+08
22626,-20.474,-42.75,26.515,1.49E+08
22627,-20.527,-42.75,25.766,1.72E+08
22628,-22.446,-42.75,24.183,1.70E+08
22629,-22.06,-42.5,24.204,1.88E+08
22630,-23.626,-42.519,26.491,2.14E+07
22631,-21.153,-40.301,24.984,1.95E+08
22632,-24.156,-41.547,23.766,1.11E+08
22633,-22.978,-40.868,25.299,9.91E+07
22634,-22.476,-41.692,26.395,6.37E+07
22635,-16.395,-42.75,29.214,1.60E+08
22636,-16.453,-42.75,28.532,1.70E+08
22637,-18.591,-42.75,27.261,1.78E+08
22638,-19.679,-42.499,29.544,3.49E+07
22639,-19.218,-40.301,26.479,2.03E+08
22640,-17.682,-41.625,28.998,1.10E+08
22641,-20.54,-41.692,27.89,7.21E+07
22642,-11.967,-42.75,31.29,1.79E+08
22643,-12.013,-42.75,30.659,1.51E+08
22644,-14.32,-42.75,29.729,1.75E+08
22645,-12.642,-42.186,33.1,6.81E+07
22646,-15.253,-42.297,32.067,5.15E+07
22647,-12.955,-40.301,30.06,1.95E+08
22648,-15.55,-41.625,30.195,1.15E+08
22649,-11.454,-41.737,31.433,1.23E+08
22650,-7.2839,-42.75,32.699,1.59E+08
22651,-7.3062,-42.75,32.099,1.32E+08
22652,-9.7286,-42.75,31.532,1.65E+08
22653,-10.358,-42.186,33.974,7.42E+07
22654,-9.1702,-41.737,32.307,1.39E+08
22655,-2.4388,-42.75,32.822,9.40E+07
22656,-4.9194,-42.75,32.631,9.57E+07
22657,-4.8235,-42.5,32.393,8.35E+07
22658,-5.1108,-41.853,35.169,8.60E+07
22659,-5.9992,-40.301,32.17,1.31E+08
22660,-3.6345,-40.301,32.527,9.05E+07
22661,-6.7833,-41.737,32.838,9.97E+07
22662,-2.4879,-42.75,32.405,5.43E+07
22663,2.4879,-42.75,32.405,1.72E+08
22664,-3.06E-17,-42.5,32.25,1.07E+08
22665,2.41,-42.5,32.16,1.89E+08
22666,-2.4112,-42.515,32.175,4.61E+07
22667,1.6848,-42.35,33.317,9.53E+07
22668,-7.4052,-42.75,31.645,1.14E+08
22669,-7.2062,-42.457,31.391,1.28E+08
22670,-4.8652,-42.5,31.881,7.31E+07
22671,-6.8251,-41.737,32.327,8.11E+07
22672,-12.149,-42.75,30.144,1.73E+08
22673,-11.86,-42.459,29.946,1.91E+08
22674,-9.6191,-42.5,30.782,1.64E+08
22675,-10.748,-40.301,30.387,1.99E+08
22676,-9.2475,-41.737,31.76,1.18E+08
22677,-16.608,-42.75,27.936,2.00E+08
22678,-16.243,-42.461,27.816,2.24E+08
22679,-14.153,-42.5,28.978,2.12E+08
22680,-15.21,-40.301,28.419,2.26E+08
22681,-13.056,-40.301,29.457,2.15E+08
22682,-15.651,-41.625,29.592,1.33E+08
22683,-20.678,-42.75,25.073,2.03E+08
22684,-20.255,-42.463,25.049,2.22E+08
22685,-18.362,-42.5,26.512,2.27E+08
22686,-19.325,-40.301,25.801,2.30E+08
22687,-17.789,-41.625,28.32,1.36E+08
22688,-24.263,-42.75,21.623,1.95E+08
22689,-23.803,-42.465,21.708,2.19E+08
22690,-22.152,-42.499,23.438,2.19E+08
22691,-24.247,-41.547,23,1.39E+08
22692,-23.069,-40.868,24.533,1.25E+08
22693,-27.279,-42.75,17.666,1.83E+08
22694,-26.807,-42.467,17.869,2.04E+08
22695,-25.434,-42.499,19.828,2.13E+08
22696,-26.143,-40.301,18.864,2.03E+08
22697,-27.514,-41.663,18.964,1.31E+08
22698,-25.902,-41.547,21.142,1.30E+08
22699,-29.656,-42.75,13.295,1.65E+08
22700,-29.198,-42.469,13.622,1.84E+08
22701,-28.133,-42.499,15.764,1.98E+08
22702,-28.691,-40.301,14.705,1.86E+08
22703,-28.866,-41.663,16.876,1.21E+08
22704,-29.946,-41.072,14.873,1.21E+08
22705,-30.243,-41.919,13.563,1.29E+08
22706,-31.338,-42.75,8.6119,1.40E+08
22707,-30.92,-42.471,9.0613,1.55E+08
22708,-30.189,-42.498,11.339,1.74E+08
22709,-30.583,-40.301,10.209,1.59E+08
22710,-31.261,-41.919,11.293,1.16E+08
22711,-32.286,-42.75,3.7272,1.12E+08
22712,-31.935,-42.473,4.2932,1.22E+08
22713,-31.554,-42.498,6.6546,1.42E+08
22714,-31.774,-40.301,5.4785,1.24E+08
22715,-31.242,-40.301,7.8099,1.44E+08
22716,-32.875,-41.596,6.0322,8.86E+07
22717,-32.476,-42.75,-1.2448,8.99E+07
22718,-32.219,-42.474,-0.57372,9.58E+07
22719,-32.196,-42.497,1.8183,1.09E+08
22720,-32.238,-40.301,0.62242,9.11E+07
22721,-33.87,-41.236,1.9438,6.59E+07
22722,-31.906,-42.75,-6.1877,8.65E+07
22723,-31.765,-42.476,-5.428,9.23E+07
22724,-32.101,-42.497,-3.0596,9.00E+07
22725,-31.964,-40.301,-4.2483,8.00E+07
22726,-33.438,-41.838,-3.8364,6.10E+07
22727,-30.587,-42.75,-10.986,1.04E+08
22728,-30.585,-42.477,-10.159,1.09E+08
22729,-31.272,-42.496,-7.8672,9.55E+07
22730,-32.21,-41.549,-9.0902,6.93E+07
22731,-28.552,-42.75,-15.526,1.26E+08
22732,-28.703,-42.479,-14.657,1.35E+08
22733,-29.726,-42.495,-12.495,1.22E+08
22734,-29.244,-40.301,-13.59,1.18E+08
22735,-30.923,-41.481,-13.393,7.52E+07
22736,-25.847,-42.75,-19.702,1.40E+08
22737,-26.165,-42.48,-18.82,1.53E+08
22738,-27.501,-42.495,-16.836,1.44E+08
22739,-26.86,-40.301,-17.846,1.37E+08
22740,-22.537,-42.75,-23.417,1.48E+08
22741,-23.027,-42.482,-22.553,1.63E+08
22742,-24.645,-42.494,-20.791,1.59E+08
22743,-24.011,-40.109,-21.529,1.51E+08
22744,-25.78,-41.665,-21.63,9.01E+07
22745,-18.698,-42.75,-26.583,1.44E+08
22746,-19.362,-42.483,-25.77,1.62E+08
22747,-21.226,-42.493,-24.271,1.65E+08
22748,-20.502,-40.249,-24.894,1.62E+08
22749,-14.421,-42.75,-29.125,1.27E+08
22750,-15.254,-42.485,-28.397,1.47E+08
22751,-17.321,-42.492,-27.194,1.58E+08
22752,-16.604,-40.2,-27.647,1.52E+08
22753,-17.996,-41.374,-28.366,8.78E+07
22754,-9.8059,-42.75,-30.985,1.00E+08
22755,-10.795,-42.486,-30.374,1.19E+08
22756,-13.02,-42.491,-29.495,1.36E+08
22757,-12.358,-40.005,-29.786,1.34E+08
22758,-13.429,-41.501,-30.628,7.97E+07
22759,-4.9611,-42.75,-32.119,7.28E+07
22760,-6.0897,-42.487,-31.657,9.17E+07
22761,-8.4212,-42.49,-31.121,1.06E+08
22762,-7.4788,-39.684,-31.371,1.09E+08
22763,-8.8649,-41.114,-32.303,6.30E+07
22764,-6.4282,-41.404,-32.802,6.06E+07
22765,-5.26E-14,-42.75,-32.5,4.88E+07
22766,-1.2444,-42.488,-32.214,6.34E+07
22767,-3.6298,-42.489,-32.034,7.98E+07
22768,-1.2439,-40.153,-32.202,9.30E+07
22769,-1.3284,-41.631,-33.295,4.86E+07
22770,-3.9695,-41.404,-33.181,4.90E+07
22771,4.9611,-42.75,-32.119,3.22E+07
22772,1.2444,-42.488,-32.214,5.31E+07
22773,3.6298,-42.489,-32.034,4.10E+07
22774,3.4153,-40.877,-32.054,7.68E+07
22775,1.1594,-41.631,-33.295,3.94E+07
22776,9.8059,-42.75,-30.985,3.22E+07
22777,8.4212,-42.49,-31.121,4.01E+07
22778,6.0897,-42.487,-31.657,3.91E+07
22779,5.874,-40.877,-31.675,7.82E+07
22780,8.8847,-41.656,-32.304,3.33E+07
22781,7.2454,-41.373,-32.638,3.69E+07
22782,14.421,-42.75,-29.125,3.70E+07
22783,13.02,-42.491,-29.495,4.57E+07
22784,10.795,-42.486,-30.374,4.53E+07
22785,11.405,-39.751,-30.158,9.31E+07
22786,11.257,-41.656,-31.554,3.78E+07
22787,13.382,-41.287,-30.714,3.97E+07
22788,18.698,-42.75,-26.583,4.81E+07
22789,17.321,-42.492,-27.194,5.06E+07
22790,15.254,-42.485,-28.397,4.46E+07
22791,17.571,-41.141,-28.646,3.98E+07
22792,22.537,-42.75,-23.417,6.40E+07
22793,21.226,-42.493,-24.271,6.97E+07
22794,19.362,-42.483,-25.77,5.75E+07
22795,20.203,-40.098,-25.134,8.83E+07
22796,22.53,-41.53,-24.989,4.25E+07
22797,25.847,-42.75,-19.702,8.81E+07
22798,24.645,-42.494,-20.791,8.92E+07
22799,23.027,-42.482,-22.553,7.46E+07
22800,23.86,-40.301,-21.694,9.55E+07
22801,28.552,-42.75,-15.526,1.15E+08
22802,27.501,-42.495,-16.836,1.20E+08
22803,26.165,-42.48,-18.82,1.03E+08
22804,26.86,-40.301,-17.846,1.14E+08
22805,28.743,-41.187,-17.2,6.93E+07
22806,30.587,-42.75,-10.986,1.36E+08
22807,29.726,-42.495,-12.495,1.47E+08
22808,28.703,-42.479,-14.657,1.30E+08
22809,29.244,-40.301,-13.59,1.36E+08
22810,30.893,-41.3,-12.647,8.57E+07
22811,31.906,-42.75,-6.1877,1.55E+08
22812,31.272,-42.496,-7.8672,1.65E+08
22813,30.585,-42.477,-10.159,1.55E+08
22814,30.958,-40.301,-9.022,1.55E+08
22815,32.595,-40.721,-8.288,8.47E+07
22816,31.734,-41.3,-10.305,9.38E+07
22817,32.476,-42.75,-1.2448,1.65E+08
22818,32.101,-42.497,-3.0596,1.83E+08
22819,31.765,-42.476,-5.428,1.75E+08
22820,32.143,-40.301,-1.8636,1.67E+08
22821,31.964,-40.301,-4.2483,1.65E+08
22822,33.383,-41.851,-3.8968,9.43E+07
22823,32.286,-42.75,3.7272,1.66E+08
22824,32.196,-42.497,1.8183,1.83E+08
22825,32.219,-42.474,-0.57372,1.83E+08
22826,32.238,-40.301,0.62242,1.68E+08
22827,33.736,-41.628,2.1431,8.52E+07
22828,31.338,-42.75,8.6119,1.56E+08
22829,31.554,-42.498,6.6546,1.77E+08
22830,31.935,-42.473,4.2932,1.84E+08
22831,31.242,-40.301,7.8099,1.54E+08
22832,31.774,-40.301,5.4785,1.64E+08
22833,33.093,-41.621,6.9216,8.45E+07
22834,29.656,-42.75,13.295,1.23E+08
22835,30.189,-42.498,11.339,1.52E+08
22836,30.92,-42.471,9.0613,1.68E+08
22837,30.583,-40.301,10.209,1.46E+08
22838,31.435,-41.213,11.687,8.56E+07
22839,27.279,-42.75,17.666,9.94E+07
22840,28.133,-42.499,15.764,1.02E+08
22841,29.198,-42.469,13.622,1.29E+08
22842,28.691,-40.301,14.705,1.02E+08
22843,29.382,-41.389,16.239,8.00E+07
22844,24.263,-42.75,21.623,1.78E+08
22845,25.434,-42.499,19.828,1.34E+08
22846,26.807,-42.467,17.869,9.92E+07
22847,25.745,-41.535,21.321,1.18E+08
22848,27.021,-41.915,19.659,1.03E+08
22849,20.678,-42.75,25.073,3.04E+08
22850,22.152,-42.499,23.438,2.72E+08
22851,23.803,-42.465,21.708,1.94E+08
22852,22.421,-41.986,25.085,1.70E+08
22853,24.09,-41.535,23.179,1.78E+08
22854,16.608,-42.75,27.936,3.90E+08
22855,18.362,-42.5,26.512,4.10E+08
22856,20.255,-42.463,25.049,3.35E+08
22857,19.325,-40.301,25.801,3.81E+08
22858,20.502,-41.986,26.668,2.37E+08
22859,18.761,-41.067,27.574,2.74E+08
22860,12.149,-42.75,30.144,3.88E+08
22861,14.153,-42.5,28.978,4.54E+08
22862,16.243,-42.461,27.816,4.32E+08
22863,15.21,-40.301,28.419,4.52E+08
22864,14.476,-41.213,30.111,2.93E+08
22865,16.622,-41.067,28.846,3.01E+08
22866,7.4052,-42.75,31.645,3.02E+08
22867,9.6191,-42.5,30.782,3.94E+08
22868,11.86,-42.459,29.946,4.28E+08
22869,9.9205,-41.19,31.828,2.62E+08
22870,12.169,-41.213,31.041,2.68E+08
22871,8.2395,-41.629,32.123,2.57E+08
22872,4.8652,-42.5,31.881,2.58E+08
22873,7.2062,-42.457,31.391,3.34E+08
22874,4.1654,-42.35,33.126,1.64E+08
22875,5.8171,-41.629,32.69,1.95E+08
22876,2.3914,-42.25,31.911,1.95E+08
22877,-2.3914,-42.25,31.911,7.12E+07
22878,1.1965,-40.051,31.978,1.57E+08
22879,-1.1965,-40.051,31.978,1.10E+08
22880,1.6848,-42.1,33.067,9.58E+07
22881,2.3914,-42.25,-31.911,6.55E+07
22882,-2.3914,-42.25,-31.911,8.70E+07
22883,-3.92E-15,-39.903,-32,1.07E+08
22884,2.1764,-40.627,-31.926,9.95E+07
22885,-8.45E-02,-41.381,-33.093,5.82E+07
22886,7.1207,-42.25,31.198,3.48E+08
22887,3.5829,-40.051,31.799,2.31E+08
22888,5.9492,-40.051,31.442,3.15E+08
22889,4.0695,-42.1,32.888,1.77E+08
22890,5.7212,-41.379,32.451,2.10E+08
22891,11.691,-42.25,29.788,4.56E+08
22892,8.2822,-40.051,30.91,3.88E+08
22893,10.569,-40.051,30.204,4.47E+08
22894,9.7337,-40.94,31.624,2.92E+08
22895,11.982,-40.963,30.838,2.97E+08
22896,8.0526,-41.379,31.919,2.87E+08
22897,16,-42.25,27.713,4.69E+08
22898,12.797,-40.051,29.33,4.80E+08
22899,14.953,-40.051,28.292,4.91E+08
22900,14.208,-40.963,29.964,3.32E+08
22901,19.952,-42.25,25.019,3.76E+08
22902,17.025,-40.051,27.095,4.69E+08
22903,19.002,-40.051,25.747,4.23E+08
22904,18.425,-40.817,27.503,3.17E+08
22905,23.458,-42.25,21.766,2.26E+08
22906,20.873,-40.051,24.255,3.47E+08
22907,22.627,-40.051,22.627,2.68E+08
22908,22.036,-41.736,25.105,1.99E+08
22909,23.705,-41.285,23.199,2.07E+08
22910,26.44,-42.25,18.026,1.13E+08
22911,24.255,-40.051,20.873,1.87E+08
22912,25.747,-40.051,19.002,1.22E+08
22913,25.331,-41.285,21.446,1.28E+08
22914,26.607,-41.665,19.784,1.14E+08
22915,28.831,-42.25,13.884,1.27E+08
22916,27.095,-40.051,17.025,8.87E+07
22917,28.292,-40.051,14.953,1.00E+08
22918,28.963,-41.139,16.476,7.05E+07
22919,27.954,-41.665,17.808,8.24E+07
22920,30.578,-42.25,9.4322,1.74E+08
22921,29.33,-40.051,12.797,1.29E+08
22922,30.204,-40.051,10.569,1.52E+08
22923,31.036,-40.963,12.04,8.33E+07
22924,31.643,-42.25,4.7694,1.94E+08
22925,30.91,-40.051,8.2822,1.68E+08
22926,31.442,-40.051,5.9492,1.75E+08
22927,32,-42.25,5.88E-15,2.00E+08
22928,31.799,-40.051,3.5829,1.81E+08
22929,31.978,-40.051,1.1965,1.85E+08
22930,33.453,-41.378,2.7163,9.77E+07
22931,31.643,-42.25,-4.7694,1.91E+08
22932,31.978,-40.051,-1.1965,1.85E+08
22933,31.799,-40.051,-3.5829,1.81E+08
22934,30.578,-42.25,-9.4322,1.74E+08
22935,31.442,-40.051,-5.9492,1.74E+08
22936,30.91,-40.051,-8.2822,1.73E+08
22937,32.525,-40.471,-7.5424,1.01E+08
22938,28.831,-42.25,-13.884,1.50E+08
22939,30.204,-40.051,-10.569,1.65E+08
22940,29.33,-40.051,-12.797,1.56E+08
22941,30.959,-41.05,-11.845,1.05E+08
22942,26.44,-42.25,-18.026,1.20E+08
22943,28.292,-40.051,-14.953,1.44E+08
22944,27.095,-40.051,-17.025,1.30E+08
22945,28.96,-40.937,-16.367,8.53E+07
22946,23.458,-42.25,-21.766,9.46E+07
22947,25.747,-40.051,-19.002,1.20E+08
22948,24.255,-40.051,-20.873,1.15E+08
22949,19.952,-42.25,-25.019,7.40E+07
22950,22.627,-40.051,-22.627,1.08E+08
22951,20.765,-39.848,-24.348,1.04E+08
22952,23.074,-41.28,-24.181,5.66E+07
22953,16,-42.25,-27.713,6.22E+07
22954,18.888,-39.848,-25.831,1.01E+08
22955,16.837,-39.721,-27.212,1.03E+08
22956,18.28,-40.891,-27.898,5.38E+07
22957,11.691,-42.25,-29.788,5.90E+07
22958,14.756,-39.721,-28.395,1.04E+08
22959,12.291,-39.501,-29.545,1.05E+08
22960,14.25,-41.037,-30.058,5.22E+07
22961,16.209,-40.891,-29.094,5.25E+07
22962,7.1207,-42.25,-31.198,5.92E+07
22963,6.9104,-40.627,-31.245,9.78E+07
22964,10.049,-39.501,-30.381,1.08E+08
22965,9.8981,-41.406,-31.771,4.96E+07
22966,8.2589,-41.123,-32.104,5.48E+07
22967,4.5561,-40.627,-31.674,9.79E+07
22968,-7.1207,-42.25,-31.198,1.11E+08
22969,-2.3914,-39.903,-31.911,1.15E+08
22970,-6.1669,-39.434,-31.4,1.19E+08
22971,-4.3686,-38.544,-31.7,1.18E+08
22972,-5.1103,-41.154,-32.8,7.03E+07
22973,-11.691,-42.25,-29.788,1.39E+08
22974,-8.4962,-39.434,-30.851,1.26E+08
22975,-11.015,-39.755,-30.044,1.41E+08
22976,-9.8784,-40.864,-31.77,8.13E+07
22977,-16,-42.25,-27.713,1.65E+08
22978,-13.229,-39.755,-29.137,1.54E+08
22979,-15.26,-39.95,-28.127,1.62E+08
22980,-14.296,-41.251,-29.971,9.98E+07
22981,-19.952,-42.25,-25.019,1.76E+08
22982,-17.319,-39.95,-26.908,1.70E+08
22983,-19.196,-39.999,-25.603,1.76E+08
22984,-18.705,-41.124,-27.618,1.06E+08
22985,-23.458,-42.25,-21.766,1.75E+08
22986,-21.055,-39.999,-24.097,1.76E+08
22987,-22.785,-39.859,-22.469,1.68E+08
22988,-23.311,-42.07,-24.909,7.33E+07
22989,-26.44,-42.25,-18.026,1.61E+08
22990,-24.4,-39.859,-20.703,1.62E+08
22991,-25.747,-40.051,-19.002,1.56E+08
22992,-26.158,-41.415,-20.795,1.01E+08
22993,-28.831,-42.25,-13.884,1.40E+08
22994,-27.095,-40.051,-17.025,1.45E+08
22995,-28.292,-40.051,-14.953,1.36E+08
22996,-30.578,-42.25,-9.4322,1.14E+08
22997,-29.33,-40.051,-12.797,1.22E+08
22998,-30.204,-40.051,-10.569,1.11E+08
22999,-30.989,-41.231,-12.591,7.49E+07
23000,-31.435,-41.299,-10.63,8.18E+07
23001,-31.643,-42.25,-4.7694,9.74E+07
23002,-30.91,-40.051,-8.2822,9.77E+07
23003,-31.442,-40.051,-5.9492,8.77E+07
23004,-32.14,-41.299,-8.3446,6.69E+07
23005,-32,-42.25,-1.96E-15,1.06E+08
23006,-31.799,-40.051,-3.5829,8.46E+07
23007,-31.978,-40.051,-1.1965,8.72E+07
23008,-33.25,-41.588,-3.1685,5.98E+07
23009,-31.643,-42.25,4.7694,1.38E+08
23010,-31.978,-40.051,1.1965,1.01E+08
23011,-31.799,-40.051,3.5829,1.19E+08
23012,-33.588,-40.986,2.517,6.75E+07
23013,-32.878,-41.346,4.134,7.98E+07
23014,-30.578,-42.25,9.4322,1.74E+08
23015,-31.442,-40.051,5.9492,1.40E+08
23016,-30.91,-40.051,8.2822,1.59E+08
23017,-28.831,-42.25,13.884,2.05E+08
23018,-30.204,-40.051,10.569,1.78E+08
23019,-29.33,-40.051,12.797,1.92E+08
23020,-30.861,-41.669,11.646,1.35E+08
23021,-26.44,-42.25,18.026,2.26E+08
23022,-28.292,-40.051,14.953,2.07E+08
23023,-27.095,-40.051,17.025,2.15E+08
23024,-28.447,-41.413,17.113,1.42E+08
23025,-23.458,-42.25,21.766,2.36E+08
23026,-25.747,-40.051,19.002,2.26E+08
23027,-24.255,-40.051,20.873,2.29E+08
23028,-25.488,-41.297,21.267,1.54E+08
23029,-19.952,-42.25,25.019,2.43E+08
23030,-22.627,-40.051,22.627,2.34E+08
23031,-20.873,-40.051,24.255,2.45E+08
23032,-23.861,-41.297,23.02,1.59E+08
23033,-22.684,-40.618,24.553,1.46E+08
23034,-16,-42.25,27.713,2.40E+08
23035,-19.002,-40.051,25.747,2.57E+08
23036,-17.025,-40.051,27.095,2.54E+08
23037,-17.453,-41.375,28.249,1.61E+08
23038,-11.691,-42.25,29.788,2.08E+08
23039,-14.953,-40.051,28.292,2.49E+08
23040,-12.797,-40.051,29.33,2.43E+08
23041,-7.1207,-42.25,31.198,1.33E+08
23042,-10.569,-40.051,30.204,2.23E+08
23043,-8.2822,-40.051,30.91,1.87E+08
23044,-9.0606,-41.487,31.556,1.34E+08
23045,-5.9492,-40.051,31.442,1.46E+08
23046,-3.5829,-40.051,31.799,1.00E+08
23047,-6.7292,-41.487,32.088,8.46E+07
23048,-3.92E-15,-7.0417,-32,5.12E+07
23049,-1.4717,-2.3472,-33.402,3.20E+07
23050,0.94963,-2.3472,-33.496,3.85E+07
23051,2.1853,-5.8681,-31.925,5.04E+07
23052,-3.2694,-4.7393,-31.833,5.25E+07
23053,-2.134,-6.5397,-31.929,5.27E+07
23054,-2.523,-4.4392,-33.645,3.97E+07
23055,0.55924,-4.0934,-34.784,5.02E+07
23056,1.1321,-5.9456,-34.29,5.32E+07
23057,-1.2813,-6.6359,-34.113,4.75E+07
23058,2.1155,-4.2162,-33.19,5.03E+07
23059,-3.92E-15,-11.736,-32,7.29E+07
23060,2.1853,-8.2153,-31.925,5.50E+07
23061,2.1853,-10.562,-31.925,6.56E+07
23062,-2.134,-8.887,-31.929,6.47E+07
23063,-2.4585,-11.035,-31.905,7.85E+07
23064,0.90963,-10.349,-33.712,6.79E+07
23065,-1.7737,-11.84,-33.705,7.20E+07
23066,1.1321,-8.2928,-34.29,6.03E+07
23067,-1.2813,-8.9832,-34.113,5.67E+07
23068,-3.92E-15,-16.431,-32,1.12E+08
23069,2.1853,-12.91,-31.925,8.11E+07
23070,2.1853,-15.257,-31.925,1.00E+08
23071,-2.4585,-13.382,-31.905,9.63E+07
23072,-2.7084,-15.803,-31.885,1.15E+08
23073,0.90963,-12.696,-33.712,8.27E+07
23074,0.5997,-15.073,-33.932,9.59E+07
23075,-1.7737,-14.187,-33.705,8.91E+07
23076,-3.92E-15,-21.125,-32,1.52E+08
23077,2.1853,-17.604,-31.925,1.23E+08
23078,2.1853,-19.951,-31.925,1.44E+08
23079,-2.7084,-18.151,-31.885,1.39E+08
23080,-2.3223,-20.294,-31.916,1.49E+08
23081,-1.7784,-19.084,-33.999,1.28E+08
23082,0.8658,-19.951,-33.982,1.31E+08
23083,0.5997,-17.421,-33.932,1.17E+08
23084,-1.7737,-16.534,-33.705,1.11E+08
23085,-3.92E-15,-25.819,-32,1.69E+08
23086,2.1853,-22.299,-31.925,1.62E+08
23087,2.3034,-24.406,-31.917,1.74E+08
23088,-2.3223,-22.642,-31.916,1.66E+08
23089,-2.4181,-24.976,-31.909,1.66E+08
23090,-1.7784,-21.431,-33.999,1.45E+08
23091,-1.7293,-23.703,-33.962,1.48E+08
23092,0.8658,-22.299,-33.982,1.49E+08
23093,1.5048,-24.646,-33.4,1.47E+08
23094,3.0337,-23.127,-33.424,1.47E+08
23095,-3.92E-15,-30.514,-32,1.62E+08
23096,2.3034,-26.754,-31.917,1.74E+08
23097,2.4861,-28.904,-31.903,1.72E+08
23098,-2.4181,-27.324,-31.909,1.65E+08
23099,-2.7084,-29.887,-31.885,1.54E+08
23100,-1.7293,-26.05,-33.962,1.48E+08
23101,-1.5799,-29.103,-33.414,1.32E+08
23102,1.5048,-26.993,-33.4,1.47E+08
23103,1.463,-29.596,-33.366,1.32E+08
23104,-3.92E-15,-35.208,-32,1.50E+08
23105,2.4861,-31.252,-31.903,1.65E+08
23106,2.7084,-33.488,-31.885,1.56E+08
23107,-2.7084,-32.234,-31.885,1.48E+08
23108,-1.9874,-33.849,-31.938,1.48E+08
23109,-1.5799,-31.45,-33.414,1.26E+08
23110,-1.7396,-34.649,-33.537,1.02E+08
23111,1.463,-31.943,-33.366,1.25E+08
23112,1.1976,-34.799,-33.338,1.08E+08
23113,2.7084,-35.836,-31.885,1.49E+08
23114,2.1764,-38.28,-31.926,1.39E+08
23115,-1.9874,-36.197,-31.938,1.43E+08
23116,-1.7396,-36.997,-33.537,9.57E+07
23117,1.1976,-37.146,-33.338,1.01E+08
23118,-8.45E-02,-39.034,-33.093,9.50E+07
23119,-2.7256,-38.807,-32.979,9.22E+07
23120,-19.309,1.4562,-41.236,5.47E+08
23121,-20,1.9198,-42.913,5.11E+08
23122,-19.767,1.0912,-41.312,6.95E+08
23123,-19.488,0.65821,-41.839,5.66E+08
23124,2.8726,19.917,79.791,1.47E+08
23125,2.983,20.901,79.646,1.32E+08
23126,3.7271,20.165,78.769,1.52E+08
23127,-2.873,19.919,79.794,1.22E+08
23128,-3.1159,20.127,80.224,1.11E+08
23129,-3.616,20.16,78.709,9.89E+07
23130,-3.4163,20.697,79.918,8.79E+07
23131,17.311,13.139,-42.874,2.32E+08
23132,17.913,10.515,-61.521,5.13E+07
23133,17.357,11.266,-61.121,7.98E+07
23134,18.498,11.945,-61.779,3.36E+07
23135,-17.554,12.937,-42.783,1.53E+08
23136,-16.705,11.284,-61.982,1.24E+08
23137,-17.961,10.54,-61.288,1.17E+08
23138,-20,-14.843,-48.374,1.13E+08
23139,-19.429,-15.999,-46.195,9.36E+07
23140,-19.377,-17.096,-46.91,8.29E+07
23141,-18.734,-15.627,-47.175,1.17E+08
23142,-19.16,-16.647,-48.33,8.86E+07
23143,-10.107,-23.895,42.151,1.19E+08
23144,-11.321,-23.027,41.831,1.19E+08
23145,0,19.955,79.764,1.30E+08
23146,1.0088,19.143,78.718,1.67E+08
23147,2.6223,20.975,79.59,1.38E+08
23148,1.2252,21.548,79.487,1.14E+08
23149,3.3663,20.239,78.713,1.58E+08
23150,0.8993,20.421,78.412,1.34E+08
23151,-2.7506,20.214,80.151,1.14E+08
23152,-1.4912,19.144,78.719,1.58E+08
23153,-3.2547,20.235,78.653,1.02E+08
23154,-3.055,20.771,79.862,9.13E+07
23155,-1.2748,21.549,79.489,9.56E+07
23156,-1.6007,20.422,78.413,1.24E+08
23157,36.54,1.31E-11,2.967,1.08E+08
23158,36.628,-0.598,4.4557,1.10E+08
23159,-15.915,-12.5,41.998,5.54E+08
23160,-15.007,-11.387,40.496,4.96E+08
23161,38.973,-24.869,-5.7651,1.05E+08
23162,38.447,-24.684,-6.9415,1.09E+08
23163,57.996,8.2574,4.9239,7.16E+07
23164,57.314,7.4633,4.7315,6.89E+07
23165,58.085,6.9867,5.2207,6.19E+07
23166,54.05,3.9152,4.016,6.00E+07
23167,53.194,2.9492,3.698,4.99E+07
23168,54.136,2.5211,5.2926,5.95E+07
23169,53.819,3.3077,4.4008,6.14E+07
23170,-32.562,-35.43,19.353,1.64E+08
23171,-33.34,-32.165,18.278,1.91E+08
23172,-29.785,-31.946,23.647,1.44E+08
23173,-30.767,-35.012,22.13,1.48E+08
23174,-30.851,-29.73,22.376,1.76E+08
23175,-32.161,-30.007,20.43,1.93E+08
23176,-29.632,-32.982,18.596,1.13E+08
23177,-28.285,-32.982,20.572,1.33E+08
23178,-28.871,-30.563,19.79,1.26E+08
23179,-31.576,-31.3,18.243,1.45E+08
23180,-31.577,-34.192,18.174,1.26E+08
23181,-28.773,-33.696,22.455,1.24E+08
23182,-30.246,-34.463,20.366,1.20E+08
23183,-29.257,-31.116,21.784,1.43E+08
23184,-37.845,-35.154,1.8932,2.12E+08
23185,-37.643,-35.04,4.387,2.11E+08
23186,-38.026,-29.799,2.5067,2.51E+08
23187,-37.535,-32.515,5.9756,2.28E+08
23188,-37.818,-30.183,4.5892,2.46E+08
23189,-37.976,-33.209,0.51848,2.27E+08
23190,-34.905,-32.982,2.6291,1.34E+08
23191,-36.401,-32.22,3.8531,1.90E+08
23192,-36.61,-31.405,0.92683,1.99E+08
23193,-36.174,-34.382,3.269,1.63E+08
23194,-36.364,-34.068,1.0689,1.68E+08
23195,-35.91,-30.204,-12.715,2.45E+08
23196,-35.158,-32.063,-14.488,2.22E+08
23197,-35.323,-35.179,-13.712,1.99E+08
23198,-36.887,-33.969,-8.902,2.19E+08
23199,-36.265,-35.769,-10.882,2.00E+08
23200,-36.666,-30.82,-10.255,2.44E+08
23201,-34.536,-31.961,-11.651,1.78E+08
23202,-35.362,-32.178,-9.0764,1.84E+08
23203,-34.782,-34.326,-12.038,1.72E+08
23204,-34.968,-34.469,-10.12,1.59E+08
23205,-21.181,-34.224,31.471,9.26E+07
23206,-24.571,-34.354,28.895,9.01E+07
23207,-23.041,-27.983,30.425,8.40E+07
23208,-25.469,-31.508,28.265,9.34E+07
23209,-20.609,-31.629,31.976,8.71E+07
23210,-21.545,-28.922,31.468,7.72E+07
23211,-25.127,-28.463,28.708,1.04E+08
23212,-22.942,-34.828,30.177,9.40E+07
23213,-23.29,-31.001,28.131,7.70E+07
23214,-22.458,-33.082,29.001,6.23E+07
23215,-22.474,-28.972,28.755,9.56E+07
23216,-21.192,-30.713,29.485,8.35E+07
23217,-31.225,-31.84,-21.717,1.89E+08
23218,-31.865,-25.9,-21.105,2.36E+08
23219,-32.506,-29.976,-19.878,2.14E+08
23220,-29.637,-31.212,-23.876,1.79E+08
23221,-30.318,-26.982,-23.228,2.13E+08
23222,-32.378,-27.9,-20.211,2.27E+08
23223,-29.304,-29.122,-24.397,1.91E+08
23224,-30.362,-29.69,-20.598,1.68E+08
23225,-29.115,-30.287,-22.273,1.60E+08
23226,-29.733,-27.339,-21.283,1.81E+08
23227,-13.789,-35.428,-35.28,7.90E+07
23228,-17.07,-38.663,-33.627,9.17E+07
23229,-17.044,-32.345,-33.98,1.10E+08
23230,-18.794,-36.153,-32.848,1.02E+08
23231,-14.672,-38.561,-34.747,8.26E+07
23232,-18.622,-33.706,-33.076,1.11E+08
23233,-15.11,-32.764,-34.864,9.87E+07
23234,-14.566,-36.361,-31.746,6.99E+07
23235,-16.582,-36.557,-30.711,6.30E+07
23236,-13.95,-33.759,-31.994,7.50E+07
23237,-16.341,-34.098,-30.854,7.18E+07
23238,-13.445,-37.471,-33.512,5.21E+07
23239,-13.441,-34.37,-33.591,6.84E+07
23240,-16.97,-32.76,-32.447,8.26E+07
23241,-15.636,-37.858,-32.588,4.48E+07
23242,-17.974,-37.731,-31.43,4.71E+07
23243,30.742,-35.032,-22.163,7.55E+07
23244,29.096,-39.353,-23.931,5.90E+07
23245,29.764,-34.399,-23.507,6.86E+07
23246,30.564,-37.704,-22.18,6.86E+07
23247,28.291,-37.447,-25.036,5.33E+07
23248,28.538,-35.114,-24.931,5.68E+07
23249,27.977,-37.188,-20.842,5.94E+07
23250,26.486,-37.188,-22.711,6.90E+07
23251,27.267,-34.989,-21.805,7.21E+07
23252,29.192,-34.083,-21.765,6.57E+07
23253,29.996,-36.341,-20.883,5.37E+07
23254,27.784,-34.108,-23.629,6.52E+07
23255,26.877,-36.075,-24.346,5.43E+07
23256,28.947,-38.081,-22.616,4.51E+07
23257,-24.803,-35.283,-28.639,1.29E+08
23258,-26.431,-33.403,-27.262,1.45E+08
23259,-22.76,-34.966,-30.306,1.21E+08
23260,-22.611,-32.518,-30.551,1.33E+08
23261,-24.166,-30.731,-29.424,1.51E+08
23262,-26.046,-31.315,-27.744,1.55E+08
23263,-21.713,-33.607,-27.415,9.75E+07
23264,-23.407,-33.061,-25.982,9.04E+07
23265,-22.141,-31.321,-27.09,1.13E+08
23266,-24.059,-30.437,-27.291,1.28E+08
23267,-23.378,-34.776,-27.789,8.97E+07
23268,-34.173,-35.086,16.379,1.86E+08
23269,-34.887,-37.931,14.426,1.70E+08
23270,-31.82,-37.931,20.316,1.43E+08
23271,-32.349,-40.431,19.184,1.43E+08
23272,-34.425,-40.431,15.145,1.55E+08
23273,-33.439,-40.804,17.164,1.50E+08
23274,-32.522,-37.112,16.313,1.18E+08
23275,-31.311,-39.462,17.849,9.02E+07
23276,-31.19,-37.382,18.506,1.12E+08
23277,-32.39,-38.872,15.845,9.34E+07
23278,-35.509,-34.667,13.292,2.00E+08
23279,-36.024,-32.165,12.162,2.20E+08
23280,-35.656,-29.662,13.462,2.34E+08
23281,-33.872,-29.662,17.473,2.15E+08
23282,-34.864,-29.3,15.426,2.31E+08
23283,-32.315,-32.638,13.472,1.27E+08
23284,-33.221,-30.956,15.274,1.71E+08
23285,-33.223,-33.848,15.205,1.52E+08
23286,-34.221,-30.949,12.4,1.73E+08
23287,-34.06,-33.14,12.997,1.58E+08
23288,-31.714,-37.74,-20.499,1.52E+08
23289,-32.738,-33.112,-19.259,1.94E+08
23290,-33.015,-36.225,-18.491,1.71E+08
23291,-30.134,-37.022,-22.82,1.47E+08
23292,-29.93,-34.351,-23.299,1.60E+08
23293,-28.958,-36.414,-19.569,8.75E+07
23294,-28.471,-33.989,-20.245,1.05E+08
23295,-29.699,-34.146,-18.372,9.18E+07
23296,-30.629,-32.827,-20.002,1.48E+08
23297,-29.381,-33.424,-21.677,1.40E+08
23298,-31.254,-35.58,-18.358,1.21E+08
23299,-16.969,-36.425,33.811,1.35E+08
23300,-20.136,-39.531,31.828,1.32E+08
23301,-17.839,-39.329,33.183,1.38E+08
23302,-18.786,-34.218,32.957,1.14E+08
23303,-21.18,-37.416,31.284,1.19E+08
23304,-17.685,-37.332,30.093,7.97E+07
23305,-18.698,-35.133,29.456,7.83E+07
23306,-20.673,-35.671,30.064,4.84E+07
23307,-18.125,-38.656,31.265,3.62E+07
23308,-17.428,-36.051,31.995,5.39E+07
23309,33.773,-38.391,-16.814,1.00E+08
23310,34.54,-41.99,-14.634,1.06E+08
23311,32.493,-40.252,-18.959,8.48E+07
23312,32.221,-42.84,-19.101,8.59E+07
23313,34.359,-39.944,-15.365,1.03E+08
23314,31.779,-40.623,-16.979,4.63E+07
23315,32.74,-40.735,-14.611,3.83E+07
23316,37.004,-38.66,-7.2727,1.47E+08
23317,37.492,-37.008,-4.8215,1.67E+08
23318,37.537,-34.631,-5.3518,1.73E+08
23319,36.677,-34.72,-9.5998,1.49E+08
23320,36.756,-36.808,-8.868,1.44E+08
23321,35.885,-33.701,-6.9392,1.24E+08
23322,35.503,-37.009,-7.6833,9.41E+07
23323,18.98,-38.434,32.602,2.14E+08
23324,21.213,-37.903,31.231,2.10E+08
23325,22.467,-40.361,30.166,1.97E+08
23326,22.077,-42.675,30.273,2.04E+08
23327,18.035,-40.432,33.003,2.12E+08
23328,21.19,-41.421,29.235,9.10E+07
23329,19.618,-38.819,30.455,1.09E+08
23330,17.302,-40.648,31.407,6.78E+07
23331,19.448,-40.502,30.142,8.09E+07
23332,37.31,-40.592,4.6523,1.99E+08
23333,37.599,-40.599,6.69E-02,1.78E+08
23334,37.091,-42.991,5.1467,1.80E+08
23335,37.441,-43.08,1.09E-02,1.64E+08
23336,37.544,-40.267,2.3737,1.91E+08
23337,36.198,-41.506,2.7258,1.10E+08
23338,35.102,-38.72,13.776,2.48E+08
23339,36.51,-37.209,9.7537,2.53E+08
23340,34.874,-35.733,14.75,2.87E+08
23341,35.881,-38.245,11.681,2.51E+08
23342,36.549,-34.783,10.067,2.78E+08
23343,32.284,-36.791,13.199,1.08E+08
23344,33.158,-36.791,10.973,9.98E+07
23345,32.763,-34.592,12.102,1.23E+08
23346,33.796,-34.101,14.054,2.40E+08
23347,34.518,-34.243,11.375,2.08E+08
23348,35.111,-35.797,9.2868,1.92E+08
23349,34.011,-37.703,12.451,1.69E+08
23350,35.009,-38.111,10.084,1.76E+08
23351,5.1528,-38.402,-37.373,3.08E+07
23352,7.335,-37.193,-37.073,2.43E+07
23353,7.2837,-34.414,-37.221,9.01E+06
23354,5.1584,-32.695,-37.649,1.39E+07
23355,5.2018,-34.937,-34.536,7.30E+07
23356,3.9661,-33.391,-36.131,4.13E+07
23357,3.7007,-36.247,-36.104,2.36E+07
23358,6.5886,-36.025,-35.716,2.62E+07
23359,6.2294,-33.582,-35.886,3.90E+07
23360,29.836,-36.716,23.235,2.36E+08
23361,30.857,-38.926,21.655,2.23E+08
23362,32.705,-35.733,19.081,2.79E+08
23363,30.405,-34.415,22.671,2.84E+08
23364,31.967,-38.287,20.046,2.42E+08
23365,28.922,-36.791,19.591,1.46E+08
23366,31.629,-34.1,18.375,2.40E+08
23367,29.882,-33.534,20.789,2.54E+08
23368,28.524,-38.024,22.048,1.85E+08
23369,29.013,-35.467,21.863,2.29E+08
23370,30.779,-36.26,19.316,2.02E+08
23371,30.808,-37.879,19.054,1.80E+08
23372,29.799,-38.404,20.386,1.70E+08
23373,10.977,-38.684,36.078,1.82E+08
23374,9.4335,-41.789,36.32,1.82E+08
23375,13.104,-38.398,35.378,2.00E+08
23376,14.215,-40.436,34.819,2.09E+08
23377,11.606,-39.071,34.183,5.14E+07
23378,11.26,-40.629,34.034,3.29E+07
23379,13.508,-40.652,33.247,3.27E+07
23380,12.205,-44.365,34.681,1.45E+08
23381,-9.8471,-38.538,36.411,1.67E+08
23382,-11.569,-35.745,36.053,1.56E+08
23383,-6.9687,-38.206,37.088,1.57E+08
23384,-11.684,-33.274,36.134,1.42E+08
23385,-6.5021,-34.462,37.363,1.63E+08
23386,-6.9888,-35.961,36.245,1.18E+08
23387,-8.0935,-33.528,35.53,8.43E+07
23388,-10.244,-34.34,34.86,6.63E+07
23389,-8.8504,-35.622,34.973,6.02E+07
23390,-8.6501,-38.089,34.71,5.41E+07
23391,3.2878,-41.077,37.426,1.40E+08
23392,-0.12123,-36.953,37.803,1.42E+08
23393,-2.517,-40.581,37.516,1.42E+08
23394,2.2141,-37.752,37.697,1.35E+08
23395,-2.0445,-36.838,37.754,1.46E+08
23396,-1.1051,-42.385,37.47,1.36E+08
23397,1.229,-42.359,37.468,1.37E+08
23398,1.3206,-39.028,34.766,7.56E+07
23399,-1.0708,-39.028,34.766,1.92E+07
23400,-2.5583,-38.337,36.612,1.04E+08
23401,1.8097,-41.077,35.878,7.70E+07
23402,-0.32834,-37.721,36.262,9.07E+07
23403,-9.5251,-38.121,-36.52,5.82E+07
23404,-8.2262,-33.843,-37.05,5.33E+07
23405,-9.9374,-32.325,-36.694,6.81E+07
23406,-11.877,-38.526,-35.801,6.79E+07
23407,-8.8146,-36.131,-36.804,5.33E+07
23408,-12.3,-32.728,-35.953,8.24E+07
23409,-9.2627,-36.006,-33.677,6.73E+07
23410,-10.649,-37.435,-34.609,3.48E+07
23411,-10.645,-34.335,-34.688,5.23E+07
23412,-8.2121,-37.725,-35.108,3.67E+07
23413,-8.7052,-34.562,-35.36,5.30E+07
23414,-37.612,-37.683,3.399,1.89E+08
23415,-37.638,-39.927,0.28706,1.70E+08
23416,-37.856,-35.853,-0.42783,2.06E+08
23417,-37.554,-40.155,2.3224,1.69E+08
23418,-37.718,-38.28,-1.0499,1.85E+08
23419,-34.874,-37.825,0.46661,8.79E+07
23420,-36.098,-37.026,2.3022,1.42E+08
23421,-36.506,-38.76,1.788,1.39E+08
23422,-36.288,-36.712,0.10207,1.47E+08
23423,-36.96,-25,9.8166,2.68E+08
23424,-36.764,-22.496,10.691,2.80E+08
23425,-37.949,-22.542,5.076,2.84E+08
23426,-37.563,-25.175,7.1468,2.71E+08
23427,-35.454,-21.273,8.943,2.42E+08
23428,-36.147,-22.951,6.5238,2.45E+08
23429,-35.321,-23.878,9.8451,2.26E+08
23430,-36.972,-22.034,-9.975,3.05E+08
23431,-37.977,-21.922,-4.9333,3.03E+08
23432,-37.678,-23.81,-6.6772,2.95E+08
23433,-37.28,-23.541,-8.65,2.98E+08
23434,-34.464,-22.871,-6.9034,2.02E+08
23435,-35.749,-20.425,-8.7173,2.66E+08
23436,-35.942,-24.372,-7.8516,2.44E+08
23437,-35.871,-21.079,-5.7593,2.56E+08
23438,-35.568,-22.312,-8.5802,2.49E+08
23439,-27.171,-39.792,26.059,1.14E+08
23440,-29.071,-40.014,23.899,1.25E+08
23441,-29.722,-42.517,22.83,1.29E+08
23442,-26.581,-42.405,26.431,1.24E+08
23443,-27.06,-41.427,23.655,5.03E+07
23444,-29.448,-24.396,24.417,2.03E+08
23445,-27.132,-21.588,27.032,2.07E+08
23446,-30.213,-22.168,23.526,2.36E+08
23447,-27.99,-23.566,26.098,1.91E+08
23448,-26.721,-23.337,22.827,1.80E+08
23449,-25.261,-22.35,24.373,2.07E+08
23450,-28.301,-21.193,23.032,2.03E+08
23451,-26.721,-20.122,25.286,2.31E+08
23452,-28.693,-23.548,22.757,1.92E+08
23453,29.249,-39.908,23.691,1.93E+08
23454,26.487,-38.398,26.865,1.94E+08
23455,27.677,-40.149,25.489,1.87E+08
23456,27.231,-35.73,26.31,2.25E+08
23457,28.735,-35.398,24.683,2.49E+08
23458,26.884,-39.007,24.071,1.50E+08
23459,27.374,-36.45,23.886,1.96E+08
23460,25.519,-36.921,25.636,1.86E+08
23461,-36.779,-37.541,8.6097,1.86E+08
23462,-37.154,-35.04,7.4707,2.09E+08
23463,-36.976,-40.051,6.9943,1.70E+08
23464,-37.324,-40.041,4.807,1.69E+08
23465,-36.104,-34.75,5.3749,1.67E+08
23466,-35.877,-36.912,4.7907,1.39E+08
23467,-36.285,-38.646,4.2765,1.37E+08
23468,-35.653,-37.515,6.8378,1.38E+08
23469,-35.576,-39.005,5.8935,1.14E+08
23470,-34.784,-29.382,-15.6,2.41E+08
23471,-35.9,-24.893,-13.18,2.83E+08
23472,-36.427,-28.139,-11.373,2.62E+08
23473,-34.692,-27.31,-15.954,2.55E+08
23474,-36.322,-26.4,-11.856,2.75E+08
23475,-35.21,-24.273,-14.959,2.82E+08
23476,-32.354,-28.197,-13.546,1.55E+08
23477,-32.878,-26.316,-12.246,1.64E+08
23478,-34.95,-27.231,-11.052,2.20E+08
23479,-34.239,-29.28,-12.769,1.96E+08
23480,-34.576,-25.171,-11.781,2.24E+08
23481,-34.143,-25.724,-13.936,2.29E+08
23482,-33.409,-25,18.607,2.43E+08
23483,-35.023,-22.495,15.469,2.73E+08
23484,-34.471,-24.637,16.574,2.58E+08
23485,-32.859,-22.495,19.652,2.58E+08
23486,-32.345,-24.06,16.81,2.02E+08
23487,-32.657,-21.655,16.808,2.22E+08
23488,-33.612,-23.879,14.637,2.16E+08
23489,-31.324,-23.876,18.889,2.09E+08
23490,-23.652,-39.913,-29.281,1.09E+08
23491,-26.956,-38.272,-26.404,1.23E+08
23492,-26.706,-35.601,-26.851,1.35E+08
23493,-23.077,-37.166,-29.929,1.13E+08
23494,-25.007,-40.991,-28.045,1.10E+08
23495,-24.425,-37.473,-24.838,5.98E+07
23496,-24.973,-39.684,-27.301,8.76E+07
23497,-23.671,-36.971,-27.397,7.77E+07
23498,-22.236,-38.738,-28.518,6.62E+07
23499,-34.854,-40.066,-14.188,1.55E+08
23500,-35.832,-40.655,-11.381,1.55E+08
23501,-36.013,-42.957,-10.269,1.34E+08
23502,-34.547,-42.629,-14.511,1.32E+08
23503,-33.742,-41.435,-13.035,9.47E+07
23504,-34.188,-41.503,-11.073,8.59E+07
23505,-38.182,-24.838,2.1908,2.78E+08
23506,-38.2,-26.669,0.33147,2.71E+08
23507,-37.945,-27.472,4.2266,2.63E+08
23508,-38.084,-30.498,0.16036,2.45E+08
23509,-35.064,-27.857,1.2922,1.77E+08
23510,-34.852,-27.853,3.6737,1.82E+08
23511,-36.516,-29.509,3.4914,2.07E+08
23512,-36.487,-25.248,3.6156,2.41E+08
23513,-36.725,-28.695,0.56507,2.17E+08
23514,-36.583,-26.312,1.1242,2.33E+08
23515,-37.628,-32.53,-5.3567,2.33E+08
23516,-38.044,-28.13,-2.9825,2.64E+08
23517,-37.527,-29.383,-6.7084,2.57E+08
23518,-37.9,-31.957,-3.1377,2.38E+08
23519,-37.811,-27.911,-5.2053,2.67E+08
23520,-34.771,-29.337,-4.4073,1.62E+08
23521,-36.075,-28.473,-6.3807,2.16E+08
23522,-36.19,-30.739,-5.5227,1.99E+08
23523,-36.578,-30.154,-2.7504,2.10E+08
23524,-37.237,-37.533,-6.3417,1.92E+08
23525,-36.746,-39.332,-8.308,1.72E+08
23526,-36.836,-41.634,-7.2095,1.52E+08
23527,-37.179,-41.576,-5.1843,1.56E+08
23528,-37.368,-39.39,-4.7635,1.75E+08
23529,-34.359,-38.932,-5.6133,7.71E+07
23530,-35.833,-40.469,-5.2014,1.12E+08
23531,-35.079,-40.18,-8.0128,1.06E+08
23532,-35.416,-38.033,-7.5509,1.33E+08
23533,22.805,-39.044,-30.009,3.17E+07
23534,24.919,-33.002,-28.672,4.20E+07
23535,24.543,-39.039,-28.605,3.58E+07
23536,23.049,-33.386,-30.176,3.15E+07
23537,25.598,-37.293,-27.794,3.77E+07
23538,25.854,-34.96,-27.714,3.92E+07
23539,22.357,-36.213,-30.53,2.34E+07
23540,21.924,-36.831,-27.177,6.80E+07
23541,23.123,-34.116,-28.16,4.93E+07
23542,21.326,-37.874,-29.258,2.82E+07
23543,24.179,-35.921,-27.097,3.75E+07
23544,24.251,-38.263,-27.032,2.18E+07
23545,-17.391,-24.635,34.066,8.40E+07
23546,-17.448,-29.369,33.895,9.55E+07
23547,-15.726,-29.104,34.737,1.05E+08
23548,-15.578,-25.284,34.917,9.43E+07
23549,-18.412,-26.661,33.472,8.02E+07
23550,-15.262,-27.093,35.008,1.02E+08
23551,-16.568,-25.941,32.507,9.86E+07
23552,-14.341,-26.115,33.806,8.88E+07
23553,-15.788,-28.112,33.188,7.36E+07
23554,-26.975,-34.227,26.672,1.06E+08
23555,-28.104,-37.292,25.257,1.14E+08
23556,-25.508,-39.681,27.697,1.14E+08
23557,-24.549,-37.546,28.707,1.07E+08
23558,-26.048,-35.977,25.527,7.06E+07
23559,-26.03,-38.708,24.96,4.58E+07
23560,-24.039,-35.801,27.496,7.08E+07
23561,-24.852,-38.029,26.493,5.74E+07
23562,13.561,-38.779,-35.182,3.07E+07
23563,11.366,-39.988,-35.878,3.89E+07
23564,11.348,-42.208,-35.74,4.27E+07
23565,15.136,-41.206,-34.377,4.32E+07
23566,11.706,-40.955,-34.088,3.81E+06
23567,13.832,-40.585,-33.249,7.55E+06
23568,33.098,-34.35,-18.524,1.01E+08
23569,30.977,-32.906,-21.995,8.40E+07
23570,31.717,-36.212,-20.64,8.15E+07
23571,31.776,-31.249,-20.943,9.95E+07
23572,32.824,-31.467,-19.243,1.07E+08
23573,30.377,-32.59,-20.24,8.41E+07
23574,31.181,-34.848,-19.358,7.17E+07
23575,31.761,-32.807,-18.358,8.44E+07
23576,-24.273,-22.832,29.603,1.51E+08
23577,-21.633,-25.27,31.527,9.05E+07
23578,-22.309,-22.619,31.114,1.38E+08
23579,-25.217,-24.812,28.754,1.38E+08
23580,-20.304,-24.199,28.638,1.88E+08
23581,-22.146,-22.244,28.983,1.75E+08
23582,-22.566,-25.319,28.819,1.37E+08
23583,34.159,-38.72,15.973,2.50E+08
23584,35.26,-41.234,12.94,2.15E+08
23585,33.499,-41.276,16.982,2.11E+08
23586,33.341,-40.693,13.699,1.34E+08
23587,32.276,-39.25,16.243,1.66E+08
23588,32.305,-40.869,15.981,1.46E+08
23589,-12.787,-38.83,35.468,1.61E+08
23590,-8.1987,-41.289,36.651,1.59E+08
23591,-13.714,-41.739,34.932,1.62E+08
23592,-8.8801,-43.033,36.376,1.55E+08
23593,-9.877,-41.172,34.201,4.76E+07
23594,-10.429,-41.252,-36.082,6.71E+07
23595,-7.3772,-38.86,-36.972,5.18E+07
23596,-5.9826,-40.373,-37.134,5.38E+07
23597,-6.2184,-42.276,-36.974,5.58E+07
23598,-9.2044,-40.163,-34.833,1.89E+07
23599,-6.7677,-40.453,-35.331,2.21E+07
23600,-8.4904,-41.545,-35.523,3.41E+07
23601,7.9087,-38.844,36.863,1.60E+08
23602,6.8238,-35.518,37.255,1.35E+08
23603,11.585,-35.452,36.063,1.69E+08
23604,7.8589,-36.372,35.531,6.09E+07
23605,8.5437,-34.091,35.368,6.11E+07
23606,10.086,-36.125,34.818,4.64E+07
23607,11.055,-33.874,34.704,5.67E+07
23608,9.74,-37.684,34.669,3.48E+07
23609,-28.924,-34.448,24.53,1.24E+08
23610,-28.983,-29.166,24.776,1.50E+08
23611,-27.512,-28.336,26.437,1.37E+08
23612,-25.728,-30.874,25.94,1.11E+08
23613,-26.905,-33.133,24.842,9.73E+07
23614,-24.896,-32.956,26.81,9.27E+07
23615,-27.389,-30.553,24.171,1.16E+08
23616,-28.329,-25.515,-25.67,2.05E+08
23617,-27.471,-23.956,-26.634,2.09E+08
23618,-25.917,-24.541,-28.132,2.02E+08
23619,-25.402,-27.071,-28.518,1.78E+08
23620,-27.225,-27.656,-26.761,1.84E+08
23621,-25.268,-26.778,-26.347,1.62E+08
23622,-26.33,-25.271,-25.75,1.80E+08
23623,20.122,-34.714,32.133,2.10E+08
23624,15.797,-35.205,34.44,1.99E+08
23625,16.891,-37.244,33.803,2.10E+08
23626,17.804,-33.794,31.948,1.28E+08
23627,18.502,-35.631,31.308,1.15E+08
23628,15.254,-33.627,33.083,8.93E+07
23629,16.305,-35.664,32.316,8.86E+07
23630,18.333,-37.314,30.995,8.83E+07
23631,13.924,-32.954,-35.346,8.33E+06
23632,11.677,-31.383,-36.216,1.72E+07
23633,15.712,-31.177,-34.665,2.26E+07
23634,11.511,-29.136,-36.351,3.46E+07
23635,14.878,-29.196,-33.362,7.00E+07
23636,13.203,-31.064,-34.158,5.62E+07
23637,12.597,-29.094,-34.484,6.61E+07
23638,7.4959,-39.84,-36.89,3.83E+07
23639,7.4844,-42.061,-36.753,4.24E+07
23640,4.8193,-40.025,-34.45,4.79E+07
23641,3.8456,-38.891,-35.937,1.03E+07
23642,6.7335,-38.669,-35.548,1.49E+07
23643,3.9719,-41.596,-36.397,2.11E+07
23644,6.1908,-40.52,-35.413,8.91E+06
23645,-15.408,-38.941,34.403,1.51E+08
23646,-16.358,-33.83,34.246,1.24E+08
23647,-14.629,-33.566,35.032,1.37E+08
23648,-13.098,-36.945,32.374,6.81E+07
23649,-13.191,-34.632,33.897,5.97E+07
23650,-14.997,-35.663,33.239,6.08E+07
23651,-11.798,-35.914,34.01,5.08E+07
23652,-11.597,-38.38,33.747,3.93E+07
23653,-36.504,-35.012,10.189,2.05E+08
23654,-36.364,-40.022,9.6907,1.68E+08
23655,-35.649,-40.013,12.061,1.67E+08
23656,-33.308,-37.682,10.376,9.12E+07
23657,-33.821,-36.693,13.237,1.36E+08
23658,-34.658,-35.986,11.029,1.43E+08
23659,-35.019,-37.487,9.5423,1.30E+08
23660,-33.689,-38.453,12.77,1.14E+08
23661,-33.987,-39.3,11.46,9.77E+07
23662,-33.191,-38.988,-17.864,1.53E+08
23663,-30.396,-39.784,-22.213,1.31E+08
23664,-32.854,-41.551,-18.163,1.33E+08
23665,-31.018,-42.078,-21.086,1.23E+08
23666,-29.181,-39.177,-18.951,7.04E+07
23667,-31.477,-38.343,-17.74,1.01E+08
23668,-32.056,-40.357,-16.683,8.83E+07
23669,-29.61,-40.541,-20.756,8.16E+07
23670,-36.668,-30.007,10.353,2.40E+08
23671,-37.311,-30.183,7.6914,2.43E+08
23672,-34.057,-32.982,8.0824,1.31E+08
23673,-35.909,-32.22,6.9418,1.84E+08
23674,-35.258,-31.293,9.2953,1.82E+08
23675,-35.096,-33.484,9.8918,1.67E+08
23676,-35.458,-34.985,8.4047,1.55E+08
23677,-7.1535,-30.77,-37.397,6.26E+07
23678,-6.0504,-34.578,-37.433,4.23E+07
23679,-4.9096,-29.884,-37.788,5.95E+07
23680,-4.2956,-31.162,-36.227,6.51E+07
23681,-4.4554,-34.361,-36.351,4.34E+07
23682,-5.9345,-33.008,-36.045,5.13E+07
23683,23.567,-36.643,29.579,2.08E+08
23684,24.361,-33.974,29.094,2.23E+08
23685,21.659,-32.844,29.127,1.92E+08
23686,20.045,-33.263,30.572,1.61E+08
23687,23.375,-32.99,27.89,2.08E+08
23688,20.743,-35.101,29.933,1.52E+08
23689,22.619,-35.166,28.371,1.66E+08
23690,-31.268,-24.178,-22.045,2.41E+08
23691,-33.208,-25.096,-18.959,2.56E+08
23692,-31.707,-22.118,-21.471,2.61E+08
23693,-33.805,-22.058,-17.989,2.82E+08
23694,-30.774,-23.636,-16.877,1.68E+08
23695,-31.71,-21.701,-18.953,2.37E+08
23696,-30.205,-22.197,-20.89,2.28E+08
23697,-32.711,-23.51,-16.952,2.28E+08
23698,-30.622,-24.535,-20.063,2.09E+08
23699,5.3097,-38.625,37.338,1.47E+08
23700,4.2799,-43.231,37.185,1.50E+08
23701,4.8779,-41.949,35.55,5.63E+07
23702,6.3296,-39.477,35.68,7.33E+07
23703,8.2107,-40.789,34.818,4.85E+07
23704,6.5296,-41.228,35.114,4.43E+07
23705,-36.137,-24.999,12.51,2.66E+08
23706,-37.101,-27.679,8.9857,2.55E+08
23707,-35.675,-27.14,13.628,2.50E+08
23708,-33.98,-28.797,13.469,1.91E+08
23709,-34.98,-28.79,10.595,1.95E+08
23710,-34.776,-26.382,11.687,2.11E+08
23711,36.586,-39.718,8.8947,2.21E+08
23712,36.828,-41.076,7.4308,2.05E+08
23713,37.133,-36.257,7.2752,2.49E+08
23714,37.464,-36.442,5.2501,2.31E+08
23715,37.445,-38.351,4.6219,2.15E+08
23716,35.776,-37.27,6.4987,1.59E+08
23717,36.032,-39.591,4.9891,1.38E+08
23718,35.674,-39.585,7.2962,1.43E+08
23719,-19.905,-42.103,-31.787,9.55E+07
23720,-21.573,-39.596,-30.867,1.05E+08
23721,-23.564,-43.424,-29.065,1.02E+08
23722,-23.511,-42.118,-28.298,7.58E+07
23723,-20.775,-41.172,-29.515,4.85E+07
23724,23.236,-41.866,-29.46,4.39E+07
23725,19.358,-41.467,-32.17,4.15E+07
23726,21,-39.041,-31.298,2.95E+07
23727,19.994,-40.701,-30.069,1.35E+07
23728,23.854,-30.17,-29.703,5.16E+07
23729,27.301,-29.322,-26.61,7.63E+07
23730,26.62,-31.745,-27.172,5.66E+07
23731,22.847,-28.539,-28.795,8.47E+07
23732,25.014,-28.41,-26.699,9.00E+07
23733,25.874,-30.74,-25.872,7.32E+07
23734,23.91,-30.901,-27.653,7.31E+07
23735,1.8431,-34.5,37.878,1.34E+08
23736,-2.4343,-33.585,37.885,1.56E+08
23737,-0.74405,-32.477,36.46,1.06E+08
23738,1.1294,-33.059,36.502,1.06E+08
23739,-0.70133,-34.469,36.428,9.48E+07
23740,32.928,-37.022,-18.563,9.15E+07
23741,35.193,-34.637,-14.111,1.25E+08
23742,33.946,-32.278,-17.118,1.17E+08
23743,34.743,-36.714,-14.932,1.13E+08
23744,32.321,-35.659,-17.248,8.06E+07
23745,32.901,-33.618,-16.248,9.29E+07
23746,32.186,-37.392,-16.561,6.35E+07
23747,33.168,-35.551,-14.585,7.42E+07
23748,36.258,-42.176,-9.5715,1.29E+08
23749,37.319,-40.342,-4.7028,1.57E+08
23750,37.156,-42.822,-4.7411,1.46E+08
23751,36.6,-40.142,-8.7283,1.36E+08
23752,35.654,-41.472,-5.6024,7.08E+07
23753,35.339,-40.343,-7.5512,7.92E+07
23754,35.642,-41.382,-8.546,9.61E+07
23755,-4.8783,-37.214,37.474,1.59E+08
23756,-3.8944,-42.761,37.259,1.43E+08
23757,-6.0283,-42.701,36.978,1.48E+08
23758,-6.2323,-39.404,34.196,4.51E+07
23759,-3.8676,-39.404,34.553,3.19E+07
23760,-5.3551,-38.713,36.399,1.15E+08
23761,-7.0165,-40.84,34.865,5.81E+07
23762,26.87,-42.021,-26.173,5.17E+07
23763,25.987,-40.115,-27.213,4.33E+07
23764,21.738,-40.696,-28.693,2.10E+07
23765,24.662,-41.085,-26.467,1.55E+07
23766,19.807,-31.606,-32.481,2.80E+07
23767,21.237,-33.382,-31.478,2.39E+07
23768,19.854,-31.654,-28.871,9.59E+07
23769,18.958,-29.625,-31.161,7.37E+07
23770,20.964,-28.922,-30.291,7.44E+07
23771,19.197,-32.702,-30.83,5.79E+07
23772,22.027,-31.284,-29.149,6.28E+07
23773,28.806,-42.362,23.991,1.69E+08
23774,31.422,-41.482,20.548,1.93E+08
23775,27.962,-41.22,22.534,1.40E+08
23776,29.238,-41.6,20.872,1.22E+08
23777,-19.282,-39.355,-32.364,9.71E+07
23778,-15.197,-41.764,-34.312,8.29E+07
23779,-16.131,-41.056,-32.136,3.43E+07
23780,-18.469,-40.929,-30.978,3.65E+07
23781,-14.723,-43.619,-33.309,5.36E+07
23782,-34.119,-34.357,-16.568,1.97E+08
23783,-33.776,-29.169,-17.692,2.34E+08
23784,-30.901,-32.278,-16.484,1.22E+08
23785,-31.501,-30.056,-15.299,1.32E+08
23786,-31.83,-30.959,-18.115,1.75E+08
23787,-33.386,-31.139,-14.522,1.73E+08
23788,-32.455,-33.712,-16.47,1.49E+08
23789,-33.632,-33.503,-14.908,1.68E+08
23790,-35.438,-38.062,-12.993,1.73E+08
23791,-34.01,-40.036,-16.11,1.52E+08
23792,-32.675,-36.828,-15.697,1.25E+08
23793,-33.254,-38.842,-14.64,1.12E+08
23794,-33.851,-36.619,-14.135,1.45E+08
23795,-18.617,-42.046,32.562,1.45E+08
23796,-22.934,-42.269,29.662,1.31E+08
23797,-21.91,-40.134,30.59,1.29E+08
23798,-18.877,-41.374,30.603,3.87E+07
23799,-21.735,-41.442,29.495,7.91E+07
23800,-19.093,-30.587,-32.949,1.28E+08
23801,-18.951,-28.644,-33.105,1.38E+08
23802,-15.582,-29.644,-34.783,1.16E+08
23803,-16.064,-28.512,-32.97,1.09E+08
23804,-17.445,-29.641,-32.348,1.06E+08
23805,30.154,-40.532,-22.467,6.60E+07
23806,29.864,-43.12,-22.578,6.96E+07
23807,27.854,-40.275,-25.284,5.25E+07
23808,26.521,-41.245,-24.545,2.89E+07
23809,28.519,-40.909,-22.88,3.76E+07
23810,-28.47,-36.392,-24.914,1.40E+08
23811,-26.855,-41.784,-26.21,1.11E+08
23812,-29.399,-41.359,-23.364,1.21E+08
23813,-26.223,-38.267,-22.94,7.35E+07
23814,-27.563,-38.459,-21.236,5.48E+07
23815,-27.986,-35.469,-23.344,1.13E+08
23816,-26.771,-40.478,-25.403,9.18E+07
23817,-27.992,-39.823,-23.041,7.37E+07
23818,35.395,-40.313,-12.736,1.17E+08
23819,35.918,-40.325,-11.171,1.24E+08
23820,33.822,-41.104,-12.001,5.34E+07
23821,34.986,-41.564,-10.979,8.34E+07
23822,11.893,-37.423,-35.859,2.40E+07
23823,11.839,-34.64,-36.021,5.99E+06
23824,15.651,-38.638,-34.312,2.88E+07
23825,15.856,-34.434,-34.452,6.17E+06
23826,17.355,-36.21,-33.627,1.42E+07
23827,12.366,-36.481,-32.65,7.02E+07
23828,11.121,-36.252,-34.514,2.43E+07
23829,12.217,-38.386,-34.046,1.27E+07
23830,13.355,-34.321,-33.953,3.37E+07
23831,14.343,-38.017,-33.206,1.51E+07
23832,15.268,-35.53,-32.826,3.19E+07
23833,-13.989,-39.848,31.795,6.11E+07
23834,-16.584,-41.172,31.93,4.57E+07
23835,-15.887,-38.567,32.66,5.86E+07
23836,-12.488,-41.284,33.168,3.45E+07
23837,3.308,-36.576,34.78,5.27E+07
23838,3.7972,-38.625,35.891,6.12E+07
23839,3.4899,-33.858,36.349,9.41E+07
23840,5.2489,-36.152,36.022,7.51E+07
23841,1.6591,-35.268,36.275,8.20E+07
23842,5.9336,-33.872,35.859,8.34E+07
23843,30.85,-30.616,-22.324,9.30E+07
23844,29.425,-30.565,-24.175,8.30E+07
23845,28.789,-32.988,-24.785,6.46E+07
23846,29.437,-31.957,-21.609,7.88E+07
23847,28.029,-31.983,-23.473,7.80E+07
23848,-30.568,-40.014,21.952,1.32E+08
23849,-29.559,-39.044,20.631,6.73E+07
23850,-27.966,-36.198,23.377,9.60E+07
23851,-27.947,-38.928,22.809,7.24E+07
23852,-29.439,-36.964,21.289,9.04E+07
23853,-32.353,-42.884,18.87,1.38E+08
23854,-30.167,-41.543,19.531,6.16E+07
23855,-28.555,-41.427,21.709,6.67E+07
23856,-31.476,-27.226,21.622,2.01E+08
23857,-30.835,-24.722,22.627,2.16E+08
23858,-28.686,-26.12,25.249,1.71E+08
23859,-29.352,-26.102,21.881,1.71E+08
23860,-28.524,-28.337,22.952,1.54E+08
23861,26.018,-40.852,27.122,1.84E+08
23862,25.532,-36.433,27.915,2.12E+08
23863,24.373,-41.416,28.563,1.93E+08
23864,23.528,-40.162,27.587,1.18E+08
23865,25.197,-39.711,25.68,1.19E+08
23866,21.956,-37.56,28.807,1.41E+08
23867,23.832,-37.625,27.245,1.57E+08
23868,21.787,-39.243,28.493,1.23E+08
23869,-35.996,-42.521,10.434,1.51E+08
23870,-37.013,-42.521,5.8832,1.50E+08
23871,-35.299,-39.996,7.9181,1.15E+08
23872,-35.221,-41.486,6.9737,9.13E+07
23873,-34.266,-41.809,9.8358,8.33E+07
23874,-16.273,-22.804,34.652,9.94E+07
23875,-19.094,-24.181,33.152,9.00E+07
23876,-19.796,-21.531,32.789,1.29E+08
23877,-17.823,-20.875,31.953,1.76E+08
23878,-17.257,-23.461,32.213,1.36E+08
23879,-15.911,-21.674,33.034,1.53E+08
23880,-27.884,-31.629,-25.879,1.64E+08
23881,-25.996,-35.593,-23.403,8.76E+07
23882,-25.272,-33.375,-24.155,1.06E+08
23883,-27.759,-32.795,-23.807,1.28E+08
23884,-25.243,-35.091,-25.962,1.01E+08
23885,-33.869,-27.14,17.642,2.32E+08
23886,-32.163,-24.999,20.686,2.32E+08
23887,-29.463,-28.06,19.017,1.54E+08
23888,-31.697,-26.563,17.861,1.77E+08
23889,-32.168,-28.797,17.47,1.72E+08
23890,-30.677,-26.379,19.94,1.85E+08
23891,-29.849,-28.613,21.011,1.68E+08
23892,-35.4,-24.636,14.486,2.63E+08
23893,-34.669,-21.273,11.645,2.35E+08
23894,-33.581,-21.653,14.718,2.25E+08
23895,-34.536,-23.878,12.547,2.22E+08
23896,-34.389,-42.884,14.838,1.46E+08
23897,-33.284,-40.953,13.506,9.15E+07
23898,-33.581,-41.799,12.196,7.40E+07
23899,-6.6292,-28.37,-37.574,7.81E+07
23900,-11.262,-29.66,-36.411,9.19E+07
23901,-7.143,-30.431,-34.309,9.89E+07
23902,-9.1966,-28.357,-33.816,9.89E+07
23903,-6.0242,-29.647,-35.951,8.35E+07
23904,-8.087,-27.47,-35.624,9.75E+07
23905,-9.6029,-31.267,-35.097,7.13E+07
23906,-7.663,-31.494,-35.769,7.01E+07
23907,-20.798,-34.396,-31.716,1.18E+08
23908,-18.777,-37.247,-29.415,6.80E+07
23909,-18.535,-34.788,-29.558,7.72E+07
23910,-19.938,-35.485,-28.639,7.07E+07
23911,-21.603,-36.654,-29.013,6.53E+07
23912,-20.168,-38.421,-30.134,5.49E+07
23913,-11.545,-40.567,-34.129,3.11E+07
23914,-13.737,-40.954,-33.204,2.23E+07
23915,-12.328,-43.517,-34.377,4.49E+07
23916,-10.831,-41.949,-34.819,4.30E+07
23917,31.26,-41.472,-20.795,7.68E+07
23918,31.005,-37.52,-19.385,5.80E+07
23919,30.871,-39.254,-18.698,3.91E+07
23920,29.957,-39.26,-21.118,5.05E+07
23921,9.6287,-35.849,-36.614,1.48E+07
23922,9.6591,-40.848,-36.321,3.66E+07
23923,8.9201,-37.46,-35.177,1.67E+07
23924,10.017,-39.595,-34.708,7.59E+06
23925,8.3774,-39.312,-35.042,1.04E+07
23926,-36.91,-36.852,-8.1975,1.94E+08
23927,-37.273,-31.904,-7.5602,2.38E+08
23928,-37.712,-34.48,-3.9997,2.18E+08
23929,-37.521,-36.908,-4.6305,1.97E+08
23930,-34.513,-36.452,-5.496,9.74E+07
23931,-34.29,-34.253,-6.6717,1.17E+08
23932,-34.647,-34.253,-4.307,1.23E+08
23933,-35.963,-33.262,-6.3903,1.80E+08
23934,-36.106,-35.339,-3.4759,1.60E+08
23935,-35.57,-35.553,-7.4336,1.55E+08
23936,-38.251,-24.42,0.37423,2.81E+08
23937,-37.996,-25.223,4.2765,2.73E+08
23938,-38.29,-22.314,-0.11464,2.93E+08
23939,-36.555,-21.417,1.3725,2.62E+08
23940,-36.532,-22.999,3.6621,2.51E+08
23941,-36.628,-24.063,1.1707,2.43E+08
23942,25.641,-43.166,27.275,1.80E+08
23943,24.76,-41.912,26.257,1.18E+08
23944,26.428,-41.461,24.351,1.21E+08
23945,-36.591,-23.77,-11.195,2.94E+08
23946,-35.528,-21.643,-14.304,3.01E+08
23947,-35.057,-20.654,-11.262,2.61E+08
23948,-34.242,-21.015,-13.114,2.51E+08
23949,-34.876,-22.542,-11.125,2.44E+08
23950,-34.443,-23.095,-13.281,2.48E+08
23951,-37.413,-42.596,-2.1162,1.45E+08
23952,-37.456,-42.284,1.6649,1.48E+08
23953,-37.572,-40.409,-1.694,1.65E+08
23954,-36.385,-40.889,1.1454,1.19E+08
23955,-36.052,-44.237,-1.4513,8.98E+07
23956,-36.454,-44.154,1.0353,1.02E+08
23957,-28.851,-23.702,-25.139,2.21E+08
23958,-30.141,-23.202,-23.591,2.38E+08
23959,-28.614,-27.401,-25.28,1.96E+08
23960,-28.673,-23.28,-23.025,2.05E+08
23961,-29.09,-25.618,-22.198,1.86E+08
23962,-27.698,-25.017,-24.249,1.93E+08
23963,7.4436,-31.351,-37.318,1.88E+07
23964,9.415,-30.823,-36.89,2.16E+07
23965,8.877,-34.682,-35.328,3.35E+07
23966,11.111,-32.751,-34.767,4.34E+07
23967,8.5178,-32.238,-35.498,4.69E+07
23968,10.505,-30.781,-35.093,5.31E+07
23969,7.2693,-29.104,-37.432,3.57E+07
23970,4.159,-27.726,-36.271,7.85E+07
23971,4.1172,-30.328,-36.237,6.34E+07
23972,6.1954,-28.445,-35.968,7.41E+07
23973,6.3805,-30.519,-35.992,6.05E+07
23974,-26.482,-22.727,-27.647,2.17E+08
23975,-29.349,-21.642,-24.607,2.41E+08
23976,-25.9,-21.446,-25.831,2.09E+08
23977,-27.847,-21.721,-24.016,2.08E+08
23978,-26.873,-23.458,-25.24,1.97E+08
23979,-36.469,-40.953,-9.0603,1.54E+08
23980,-33.447,-38.252,-9.8002,7.97E+07
23981,-34.253,-39.431,-11.83,1.15E+08
23982,-34.699,-39.499,-9.8683,1.07E+08
23983,-34.85,-37.208,-11.324,1.47E+08
23984,-35.036,-37.352,-9.4063,1.35E+08
23985,27.857,-33.432,25.801,2.64E+08
23986,26.457,-34.485,24.972,2.09E+08
23987,25.359,-32.78,26.24,2.42E+08
23988,24.602,-34.956,26.722,1.98E+08
23989,33.196,-38.287,17.937,2.51E+08
23990,31.351,-36.791,15.406,1.18E+08
23991,32.862,-34.1,16.262,2.46E+08
23992,33.077,-37.703,14.659,1.74E+08
23993,32.013,-36.26,17.203,2.06E+08
23994,-38.064,-30.08,-1.6401,2.49E+08
23995,-38.208,-24.145,-1.9703,2.87E+08
23996,-38.04,-26.033,-3.6819,2.77E+08
23997,-36.752,-28.276,-1.2426,2.21E+08
23998,-36.609,-25.893,-0.68344,2.37E+08
23999,36.312,-42.117,9.3808,2.01E+08
24000,34.137,-40.218,11.618,1.34E+08
24001,35.135,-40.626,9.2516,1.42E+08
24002,-34.607,-28.237,5.7695,1.73E+08
24003,-34.375,-26.323,6.9151,1.91E+08
24004,-36.271,-29.893,5.5872,2.01E+08
24005,-35.619,-28.966,7.9406,2.00E+08
24006,-36.241,-25.632,5.7114,2.35E+08
24007,-35.416,-26.558,9.0327,2.15E+08
24008,-5.2736,-38.384,-37.357,4.51E+07
24009,-7.1082,-36.745,-34.156,5.76E+07
24010,-5.0717,-36.654,-36.145,3.41E+07
24011,-6.0577,-38.464,-35.587,2.30E+07
24012,-6.5508,-35.301,-35.839,3.94E+07
24013,-37.458,-27.285,-7.4151,2.71E+08
24014,-37.021,-27.016,-9.3876,2.75E+08
24015,-35.701,-27.847,-8.5898,2.21E+08
24016,-34.99,-29.896,-10.307,1.96E+08
24017,-35.816,-30.113,-7.7318,2.03E+08
24018,37.732,-36.313,-2.8012,1.83E+08
24019,37.491,-41.171,-2.3362,1.65E+08
24020,37.729,-38.358,2.24E-02,1.91E+08
24021,34.82,-38.271,-1.144,5.32E+07
24022,34.642,-38.271,-3.5287,7.34E+07
24023,36.408,-36.72,-0.9859,1.31E+08
24024,36.061,-39.82,-3.1772,9.66E+07
24025,35.746,-38.691,-5.126,1.05E+08
24026,36.318,-39.597,0.37668,1.09E+08
24027,35.781,-41.99,5.4799,1.18E+08
24028,35.423,-41.984,7.787,1.23E+08
24029,-23.935,-40.155,29.031,1.21E+08
24030,-25.427,-41.316,25.307,3.63E+07
24031,-24.25,-40.638,26.841,5.23E+07
24032,-23.747,-41.462,27.937,7.60E+07
24033,-16.479,-31.358,34.3,1.15E+08
24034,-19.147,-28.916,32.983,8.16E+07
24035,-18.105,-32.539,29.928,9.68E+07
24036,-16.034,-32.539,31.123,1.03E+08
24037,-20.08,-33.076,30.535,5.18E+07
24038,-16.532,-30.366,32.723,6.56E+07
24039,-18.815,-30.707,31.019,6.19E+07
24040,-16.836,-33.456,32.467,5.39E+07
24041,37.532,-34.021,5.5796,2.57E+08
24042,35.24,-33.296,8.9248,1.99E+08
24043,35.873,-32.314,6.834,2.10E+08
24044,35.833,-34.85,6.8369,1.85E+08
24045,37.942,-34.071,0.12077,2.12E+08
24046,37.85,-35.981,-0.47244,1.96E+08
24047,34.723,-35.894,-4.0433,8.41E+07
24048,34.857,-33.695,-2.8543,9.53E+07
24049,36.489,-34.343,-1.5006,1.39E+08
24050,36.265,-32.487,-2.67,1.43E+08
24051,36.209,-33.006,-4.8965,1.41E+08
24052,35.827,-36.314,-5.6407,1.12E+08
24053,-31.301,-41.916,17.539,7.51E+07
24054,-32.38,-41.325,15.536,7.80E+07
24055,10.005,-41.815,-34.57,7.07E+06
24056,8.3657,-41.532,-34.904,7.14E+06
24057,-37.757,-36.336,-2.4335,2.02E+08
24058,-34.908,-33.681,-2.0985,1.26E+08
24059,-36.225,-32.69,-4.1817,1.84E+08
24060,-36.613,-32.104,-1.4094,1.96E+08
24061,-36.368,-34.767,-1.2673,1.64E+08
24062,32.717,-29.179,-19.581,1.16E+08
24063,30.294,-28.908,-23.167,9.88E+07
24064,30.261,-30.3,-20.571,9.57E+07
24065,31.645,-30.517,-18.689,9.57E+07
24066,30.705,-28.204,-20.172,1.09E+08
24067,-32.764,-26.2,15.835,1.92E+08
24068,-33.235,-28.434,15.444,1.88E+08
24069,-34.031,-26.019,13.662,2.07E+08
24070,-23.477,-21.121,30.269,1.74E+08
24071,-26.304,-23.312,27.802,1.74E+08
24072,-23.571,-22.096,26.074,1.94E+08
24073,-23.279,-20.747,28.086,2.07E+08
24074,-23.699,-23.822,27.921,1.71E+08
24075,-25.031,-19.868,26.987,2.17E+08
24076,35.903,-42.301,-3.2247,8.00E+07
24077,35.669,-36.19,-12.639,1.27E+08
24078,36.188,-36.202,-11.065,1.36E+08
24079,33.628,-33.784,-9.4609,8.19E+07
24080,33.848,-33.094,-13.955,1.09E+08
24081,34.573,-32.323,-11.311,1.11E+08
24082,35.337,-33.094,-9.1384,1.14E+08
24083,34.114,-35.027,-12.292,9.16E+07
24084,34.955,-36.403,-9.8826,8.38E+07
24085,-29.689,-21.519,21.242,2.12E+08
24086,-31.414,-21.653,18.885,2.13E+08
24087,-30.081,-23.874,20.967,2.01E+08
24088,-34.242,-24.059,-17.069,2.74E+08
24089,-30.42,-27.724,-17.466,1.55E+08
24090,-31.392,-27.984,-15.651,1.45E+08
24091,-31.244,-25.637,-15.967,1.60E+08
24092,-31.72,-28.887,-18.467,1.88E+08
24093,-33.18,-25.511,-16.042,2.20E+08
24094,-31.091,-26.536,-19.152,2.01E+08
24095,-4.1363,-41.801,-37.296,5.13E+07
24096,-3.688,-38.168,-36.257,2.44E+07
24097,-2.0329,-40.205,-35.812,1.78E+07
24098,-4.674,-39.978,-35.698,1.22E+07
24099,18.874,-38.637,-32.65,2.71E+07
24100,15.904,-40.444,-32.345,8.29E+06
24101,17.863,-40.298,-31.381,5.91E+06
24102,28.843,-32.219,22.282,2.65E+08
24103,27.974,-34.153,23.355,2.39E+08
24104,26.876,-32.448,24.624,2.68E+08
24105,-22.248,-30.16,-30.925,1.45E+08
24106,-20.501,-30.006,-32.116,1.39E+08
24107,-18.375,-32.34,-29.796,9.43E+07
24108,-19.778,-33.037,-28.876,8.76E+07
24109,-20.206,-30.751,-28.551,1.04E+08
24110,-20.504,-29.456,-30.36,1.25E+08
24111,-19.005,-31.002,-31.388,1.05E+08
24112,19.094,-34.434,-32.769,1.41E+07
24113,16.806,-30.677,-32.427,6.14E+07
24114,15.131,-32.545,-33.224,4.76E+07
24115,17.044,-33.755,-32.096,4.56E+07
24116,-14.283,-29.083,35.356,1.18E+08
24117,-13.311,-32.16,33.962,6.02E+07
24118,-14.813,-30.102,33.56,6.44E+07
24119,-15.117,-33.192,33.304,5.90E+07
24120,8.1628,-27.917,-35.602,7.77E+07
24121,8.3479,-29.991,-35.626,6.41E+07
24122,10.336,-28.534,-35.22,7.03E+07
24123,-14.13,-25.262,35.529,1.04E+08
24124,-15.442,-24.11,33.055,1.19E+08
24125,-14.095,-22.323,33.875,1.38E+08
24126,-13.214,-24.284,34.353,1.06E+08
24127,-24.352,-25.842,-29.46,1.88E+08
24128,-22.828,-24.082,-26.711,1.73E+08
24129,-24.335,-22.03,-27.318,2.01E+08
24130,-22.129,-23.088,-29.442,1.91E+08
24131,-24.245,-25.548,-27.323,1.69E+08
24132,-22.625,-25.137,-28.93,1.73E+08
24133,-25.307,-24.042,-26.726,1.87E+08
24134,-36.961,-43.195,-5.9225,1.37E+08
24135,-34.828,-41.801,-8.7633,8.80E+07
24136,-37.416,-40.95,-3.4829,1.61E+08
24137,-35.911,-42.031,-3.9251,9.76E+07
24138,-35.915,-44.778,-3.2276,8.65E+07
24139,14.835,-37.205,34.757,2.01E+08
24140,12.222,-35.839,34.145,5.48E+07
24141,13.191,-33.588,34.031,7.20E+07
24142,14.243,-35.624,33.265,6.15E+07
24143,-22.119,-28.218,-31.094,1.56E+08
24144,-25.722,-28.957,-28.156,1.69E+08
24145,-21.796,-28.963,-27.483,1.29E+08
24146,-23.714,-28.079,-27.684,1.44E+08
24147,-22.094,-27.668,-29.291,1.48E+08
24148,-20.793,-23.558,32.128,1.08E+08
24149,-18.789,-25.138,29.652,1.56E+08
24150,-18.266,-25.487,31.586,1.17E+08
24151,-21.051,-26.258,29.833,1.07E+08
24152,-17.486,-27.659,32.267,8.38E+07
24153,-19.769,-28,30.564,9.56E+07
24154,23.146,-42.476,27.722,1.03E+08
24155,-29.148,-21.221,-22.476,2.25E+08
24156,-19.48,-22.488,29.262,2.10E+08
24157,-21.199,-18.492,30.293,2.27E+08
24158,-21.322,-20.533,29.607,1.97E+08
24159,-19.523,-20.251,30.935,2.04E+08
24160,-18.957,-22.837,31.196,1.64E+08
24161,-38.032,-23.927,-4.1914,2.90E+08
24162,-35.08,-23.435,-2.1738,2.11E+08
24163,-36.552,-21.142,-0.98123,2.67E+08
24164,-36.194,-21.197,-3.2801,2.54E+08
24165,-36.625,-23.788,-1.183,2.49E+08
24166,31.164,-29.006,-16.059,1.05E+08
24167,33.008,-27.928,-15.486,1.14E+08
24168,32.664,-30.735,-16.973,1.03E+08
24169,31.723,-28.422,-18.456,1.15E+08
24170,-4.5862,-33.463,34.677,4.08E+07
24171,-4.8847,-34.97,36.657,1.22E+08
24172,-5.9895,-32.537,35.942,9.48E+07
24173,-2.6975,-32.362,36.339,1.15E+08
24174,-4.0291,-31.154,36.471,1.19E+08
24175,-2.6547,-34.355,36.307,1.05E+08
24176,-37.405,-25.546,-7.8929,2.83E+08
24177,-34.733,-27.241,-5.1268,1.75E+08
24178,-34.559,-24.877,-6.1518,1.89E+08
24179,-34.853,-25.323,-3.9015,2.01E+08
24180,-36.037,-26.377,-7.1001,2.30E+08
24181,-35.967,-23.085,-5.0078,2.44E+08
24182,-36.54,-28.058,-3.4698,2.23E+08
24183,-36.398,-25.675,-2.9106,2.39E+08
24184,-4.5744,-44.504,37.061,1.34E+08
24185,-0.12574,-44.539,37.34,1.31E+08
24186,-2.6259,-45.734,36.058,8.26E+07
24187,-4.9129,-41.88,-35.55,1.35E+07
24188,-6.6356,-42.972,-35.741,2.93E+07
24189,-3.3986,-44.978,-36.271,3.05E+07
24190,37.731,-36.116,2.9487,2.22E+08
24191,34.839,-33.83,2.979,1.10E+08
24192,36.472,-34.478,1.9414,1.68E+08
24193,36.166,-32.499,4.8107,1.91E+08
24194,36.126,-35.035,4.8136,1.65E+08
24195,36.593,-31.601,2.5337,1.91E+08
24196,-35.627,-26.108,-9.0713,2.33E+08
24197,-35.253,-24.048,-9.7999,2.37E+08
24198,-3.9219,-25.709,-36.925,9.92E+07
24199,-3.7725,-28.761,-36.377,8.43E+07
24200,-5.8353,-26.584,-36.049,9.86E+07
24201,13.33,-37.879,33.557,5.44E+07
24202,15.35,-37.664,32.676,6.08E+07
24203,15.232,-39.46,32.621,4.73E+07
24204,17.378,-39.314,31.355,5.72E+07
24205,27.256,-36.037,-26.263,4.65E+07
24206,25.229,-38.111,-24.059,5.84E+07
24207,25.62,-36.997,-25.694,4.14E+07
24208,25.691,-39.34,-25.628,2.68E+07
24209,27.69,-39.003,-23.963,3.35E+07
24210,-7.2021,-45.709,35.595,9.12E+07
24211,-32.736,-20.665,-17.058,2.55E+08
24212,-33.535,-20.394,-14.89,2.50E+08
24213,-33.736,-22.474,-15.057,2.47E+08
24214,28.171,-31.28,-25.586,7.05E+07
24215,27.485,-28.649,-21.712,1.05E+08
24216,26.001,-28.568,-23.519,1.17E+08
24217,26.575,-27.945,-25.119,1.03E+08
24218,28.843,-30.249,-22.428,8.68E+07
24219,27.435,-30.274,-24.292,8.62E+07
24220,29.286,-28.153,-22.029,9.98E+07
24221,27.887,-26.921,-23.72,1.08E+08
24222,-27.625,-44.076,-25.171,1.05E+08
24223,-24.88,-43.196,-27.094,7.70E+07
24224,-25.17,-26.953,24.487,1.60E+08
24225,-25.929,-25.061,23.632,1.50E+08
24226,-24.469,-24.074,25.178,1.79E+08
24227,-25.412,-27.828,26.401,1.38E+08
24228,-24.596,-25.799,27.025,1.56E+08
24229,-27.9,-25.272,23.561,1.60E+08
24230,-27.072,-27.507,24.632,1.43E+08
24231,-32.937,-41.405,-14.955,8.88E+07
24232,26.778,-32.698,-24.881,6.52E+07
24233,24.814,-32.859,-26.662,6.53E+07
24234,25.871,-34.664,-25.599,5.38E+07
24235,-36.279,-41.117,3.1797,1.17E+08
24236,-35.569,-41.476,4.7967,9.45E+07
24237,-36.347,-44.382,3.0696,1.02E+08
24238,-28.677,-42.116,-21.947,6.66E+07
24239,31.315,-38.817,18.197,1.71E+08
24240,31.344,-40.436,17.935,1.50E+08
24241,30.335,-40.961,19.267,1.40E+08
24242,-20.369,-27.513,-30.524,1.38E+08
24243,-18.87,-29.06,-31.553,1.18E+08
24244,-24.914,-31.287,-24.658,1.20E+08
24245,-25.854,-28.749,-23.662,1.30E+08
24246,-25.566,-28.663,-25.967,1.53E+08
24247,-27.402,-30.707,-24.309,1.41E+08
24248,-28.02,-27.758,-23.32,1.62E+08
24249,-26.628,-27.157,-25.37,1.71E+08
24250,-34.612,-38.307,-3.9145,8.29E+07
24251,-34.791,-38.307,-1.5298,8.73E+07
24252,-36.086,-39.844,-3.5026,1.17E+08
24253,-36.423,-39.243,-0.20845,1.35E+08
24254,-36.206,-37.194,-1.8943,1.44E+08
24255,20.127,-36.828,-28.493,6.33E+07
24256,19.153,-34.482,-29.198,7.60E+07
24257,17.571,-38.016,-31.538,2.18E+07
24258,18.496,-35.53,-31.157,3.85E+07
24259,21.326,-34.112,-29.476,4.24E+07
24260,19.53,-37.871,-30.574,2.08E+07
24261,35.807,-38.279,-11.901,1.24E+08
24262,32.728,-38.946,-15.101,6.37E+07
24263,33.709,-37.104,-13.125,7.36E+07
24264,33.689,-39.058,-12.733,5.68E+07
24265,-21.439,-37.936,27.503,8.36E+07
24266,-19.464,-37.936,28.85,9.34E+07
24267,-22.452,-36.274,28.821,5.72E+07
24268,-19.904,-39.26,30.022,3.63E+07
24269,-23.265,-38.503,27.818,4.38E+07
24270,-22.762,-39.327,28.914,7.04E+07
24271,34.231,-37.116,-11.556,8.33E+07
24272,35.071,-38.491,-9.1463,7.64E+07
24273,34.21,-39.07,-11.164,6.70E+07
24274,35.374,-39.53,-10.141,9.22E+07
24275,2.7897,-43.232,35.705,6.01E+07
24276,2.5772,-45.778,36.291,9.26E+07
24277,-12.898,-26.093,34.436,9.01E+07
24278,-14.346,-28.091,33.818,7.69E+07
24279,-12.48,-31.059,-32.753,9.09E+07
24280,-11.564,-28.761,-33.068,1.03E+08
24281,-14.119,-28.931,-33.826,9.79E+07
24282,-11.971,-31.67,-34.35,8.01E+07
24283,-13.297,-27.21,-33.913,1.07E+08
24284,-15.5,-30.06,-33.205,9.39E+07
24285,34.659,-37.939,3.5527,5.69E+07
24286,34.837,-37.939,1.168,7.79E+07
24287,36.425,-36.388,1.3261,1.49E+08
24288,36.08,-36.945,4.1983,1.46E+08
24289,36.335,-39.266,2.6887,1.27E+08
24290,9.7647,32.733,111.42,1.25E+07
24291,41.65,-24.31,-3.6256,1.14E+08
24292,42.929,-24.645,-2.977,1.33E+08
24293,34.894,-24.174,22.527,4.38E+08
24294,36.551,-24.12,22.398,4.34E+08
24295,-21.758,-0.80128,-42.292,4.26E+08
24296,-22.943,-2.7995,-43.139,3.56E+08
24297,-21.206,-1.9158,-42.647,3.57E+08
24298,-20.833,-1.4993,-42.937,4.44E+08
24299,-5.8314,12.897,74.14,1.16E+08
24300,-3.3016,21.01,80.262,7.90E+07
24301,5.6703,12.527,74.437,2.20E+08
24302,51.236,-13.935,1.9247,9.60E+07
24303,54.049,-14.387,3.0053,1.14E+08
24304,55.597,-16.844,3.4656,1.28E+08
24305,51.316,-18.814,1.9604,1.15E+08
24306,50.343,-16.58,1.5077,1.03E+08
24307,51.994,-19.08,4.0002,1.04E+08
24308,54.757,-17.941,4.9467,1.08E+08
24309,51.859,-13.812,4.405,8.59E+07
24310,50.353,-16.851,3.3814,9.25E+07
24311,52.845,-16.141,5.1189,9.75E+07
24312,54.671,-19.273,3.8429,1.16E+08
24313,56.941,-9.8987,3.806,1.03E+08
24314,57.202,-5.3801,3.8827,7.23E+07
24315,55.91,-7.2749,3.5748,8.16E+07
24316,59.207,-10.139,4.211,1.12E+08
24317,59.282,-5.6452,4.2343,8.17E+07
24318,56.975,-8.2467,6.0832,7.63E+07
24319,55.81,-6.3141,5.5303,6.12E+07
24320,59.006,-8.9829,5.7935,9.09E+07
24321,59.097,-6.8277,5.7163,7.90E+07
24322,44.968,-15.031,-1.8271,9.08E+07
24323,46.231,-16.635,-0.89797,9.03E+07
24324,43.32,-15.682,-3.2113,1.44E+08
24325,45.337,-18.77,-1.5404,9.86E+07
24326,43.341,-18.651,-3.1867,1.28E+08
24327,42.57,-17.326,-1.5421,8.71E+07
24328,44.226,-17.232,-0.28161,8.03E+07
24329,43.201,-15.602,-0.38946,7.94E+07
24330,52.371,-11.599,2.4086,9.17E+07
24331,51.4,-9.0005,2.0241,6.97E+07
24332,47.415,-12.204,-9.98E-02,7.44E+07
24333,48.767,-13.803,0.69277,8.05E+07
24334,47.658,-12.372,2.3892,5.81E+07
24335,48.732,-8.9695,2.104,4.84E+07
24336,50.234,-11.033,3.6926,6.40E+07
24337,48.728,-14.073,2.6689,6.86E+07
24338,46.982,-10.432,0.98794,4.77E+07
24339,47.878,-10.67,3.856,4.90E+07
24340,54.227,-9.4161,3.081,8.75E+07
24341,56.809,-14.489,3.7659,1.24E+08
24342,57.466,-12.285,3.9095,1.19E+08
24343,55.257,-10.392,5.6999,8.23E+07
24344,56.261,-12.885,5.705,9.93E+07
24345,53.037,-11.466,4.795,8.26E+07
24346,54.024,-13.795,5.5089,9.32E+07
24347,57.288,-11.128,5.4102,9.71E+07
24348,54.475,-4.9285,3.1914,5.85E+07
24349,57.296,-1.4319,3.9278,4.52E+07
24350,57.802,-3.2848,4.0116,5.95E+07
24351,52.994,-3.0178,3.9357,3.65E+07
24352,56.435,-2.6112,5.4688,4.03E+07
24353,55.495,-0.44969,5.0193,3.29E+07
24354,54.348,-3.9583,5.2431,4.26E+07
24355,53.937,-1.3754,4.7393,3.97E+07
24356,57.635,-4.4719,5.429,5.55E+07
24357,50.53,-6.7909,2.9012,4.51E+07
24358,54.252,-7.7802,5.3946,6.09E+07
24359,51.734,-4.9071,3.5343,4.11E+07
24360,52.032,-8.8546,4.4897,6.06E+07
24361,53.087,-5.8476,4.8417,4.84E+07
24362,59.07,-14.756,4.1848,1.33E+08
24363,57.518,-18.061,5.6902,1.19E+08
24364,60.338,-18.263,4.8535,1.30E+08
24365,57.843,-15.351,6.0585,1.14E+08
24366,55.606,-16.26,5.8624,1.08E+08
24367,57.431,-19.392,4.5864,1.26E+08
24368,48.852,-18.67,0.73874,1.02E+08
24369,47.893,-20.804,0.19607,1.05E+08
24370,47.675,-21.281,2.4502,8.88E+07
24371,50.455,-21.169,3.33,1.02E+08
24372,48.815,-18.94,2.7112,8.97E+07
24373,46.6,-14.831,-0.64287,8.61E+07
24374,43.652,-13.877,-2.9092,1.30E+08
24375,45.508,-13.401,1.0319,6.36E+07
24376,44.578,-15.427,-2.91E-03,6.92E+07
24377,44.831,-11.461,-0.3693,5.39E+07
24378,43.553,-13.798,-0.11077,6.57E+07
24379,46.988,-18.57,-0.38317,9.30E+07
24380,46.809,-15.006,1.9058,6.67E+07
24381,47.878,-16.706,2.1856,7.74E+07
24382,45.879,-17.032,0.87098,6.91E+07
24383,59.379,-1.6762,4.2636,5.16E+07
24384,57.995,-1.0037,5.7895,3.61E+07
24385,57.056,1.1578,5.3401,3.76E+07
24386,58.656,2.4119,4.9347,2.96E+07
24387,59.915,0.48052,5.9179,3.31E+07
24388,61.01,-16.05,4.9531,1.26E+08
24389,60.833,-12.445,6.2347,1.13E+08
24390,58.516,-13.138,6.1581,1.09E+08
24391,59.542,-11.38,5.8633,1.07E+08
24392,42.111,-17.498,-4.3649,1.77E+08
24393,39.224,-15.622,-3.9656,1.17E+08
24394,41.305,-16.173,-2.6822,1.42E+08
24395,41.936,-14.449,-1.5295,1.33E+08
24396,39.85,-14.282,-4.7297,1.37E+08
24397,40.882,-13.515,-4.9312,2.26E+08
24398,58.51,-2.8644,5.8458,4.69E+07
24399,60.43,-1.3802,5.9741,4.27E+07
24400,61.387,-3.4092,6.165,5.97E+07
24401,59.71,-4.7251,5.806,6.44E+07
24402,44.024,-20.585,-2.576,1.22E+08
24403,45.527,-22.476,-0.53428,1.03E+08
24404,43.297,-19.261,-0.98532,7.85E+07
24405,45.813,-21.181,1.3287,7.97E+07
24406,46.952,-18.841,1.5898,7.97E+07
24407,44.953,-19.167,0.27517,7.71E+07
24408,43.281,-21.7,-0.66832,6.73E+07
24409,41.323,-19.142,-2.6547,1.23E+08
24410,41.307,-21.581,-2.3377,1.07E+08
24411,40.367,-20.244,-4.2341,1.31E+08
24412,41.53,-22.14,-3.9712,1.29E+08
24413,14.951,-7.8431,39.678,5.77E+08
24414,13.774,-9.4777,42.005,4.30E+08
24415,16.66,-12.766,37.113,5.28E+08
24416,14.399,-14.567,40.796,3.87E+08
24417,14.019,-12.016,41.53,4.06E+08
24418,15.575,-13.924,38.734,4.59E+08
24419,15.969,-10.112,38.073,5.76E+08
24420,12.565,-12.475,39.453,3.22E+08
24421,14.152,-12.573,36.868,3.25E+08
24422,12.207,-9.6191,39.358,3.44E+08
24423,14.005,-10.398,37.797,3.90E+08
24424,11.938,-10.666,41.199,3.34E+08
24425,11.938,-5.7652,47.087,3.44E+08
24426,11.875,-2.3287,47.216,3.83E+08
24427,11.377,-6.4779,49.816,2.86E+08
24428,11.285,-1.5558,50.253,2.69E+08
24429,9.4926,-1.3252,48.503,2.72E+08
24430,9.2386,-4.9845,50.549,2.26E+08
24431,9.396,-4.0449,47.537,2.46E+08
24432,9.7688,-5.9251,48.514,2.39E+08
24433,9.4184,-2.435,50.368,2.42E+08
24434,11.395,-11.403,49.81,2.55E+08
24435,12.117,-13.213,46.57,2.84E+08
24436,11.413,-16.254,49.739,2.03E+08
24437,11.853,-16.612,47.593,2.16E+08
24438,9.5377,-14.191,51.053,1.71E+08
24439,9.9577,-15.334,48.07,1.72E+08
24440,9.4149,-12.819,48.085,1.79E+08
24441,9.7129,-11.892,50.323,1.94E+08
24442,10.14,-14.307,46.439,1.83E+08
24443,13.72,-5.869,42.03,5.28E+08
24444,13.61,-2.4847,42.15,5.64E+08
24445,16.058,-3.9808,37.766,7.79E+08
24446,15.898,-6.5325,38.093,6.70E+08
24447,13.022,-1.8189,38.607,6.67E+08
24448,12.147,-2.7816,40.134,5.30E+08
24449,14.003,-4.9455,37.216,5.02E+08
24450,12.143,-6.0223,39.377,4.39E+08
24451,12.303,-4.6791,40.764,4.83E+08
24452,13.941,-6.8012,37.816,4.84E+08
24453,12.975,-4.0023,38.716,5.21E+08
24454,12.665,-4.1056,44.608,4.37E+08
24455,11.945,-8.2356,47.13,3.33E+08
24456,12.951,-10.061,43.983,3.69E+08
24457,11.076,-7.6565,41.771,2.90E+08
24458,10.086,-5.808,44.891,3.06E+08
24459,10.459,-7.6882,45.868,2.94E+08
24460,10.086,-9.6577,45.444,2.62E+08
24461,11.236,-6.3133,43.158,3.37E+08
24462,10.807,-8.7035,43.612,2.90E+08
24463,18.191,-17.167,35.183,5.12E+08
24464,17.312,-15.237,36.259,5.15E+08
24465,19.43,-12.654,33.801,6.42E+08
24466,17.767,-11.451,35.655,6.39E+08
24467,19.535,-16.49,33.713,5.41E+08
24468,15.922,-13.899,34.427,3.88E+08
24469,17.424,-11.81,33.35,4.71E+08
24470,17.018,-16.005,33.466,3.63E+08
24471,18.562,-14.281,32.677,4.39E+08
24472,19.568,-9.0006,33.596,7.60E+08
24473,18.077,-5.2451,35.129,8.72E+08
24474,17.892,-7.7776,35.426,7.53E+08
24475,19.361,-5.1831,33.7,8.96E+08
24476,15.969,-6.2054,34.543,6.00E+08
24477,17.648,-5.4012,33.117,6.77E+08
24478,17.557,-8.1476,33.136,5.88E+08
24479,19.044,-6.9118,32.02,6.46E+08
24480,13.485,-15.164,42.72,3.18E+08
24481,14.918,-17.051,39.844,3.64E+08
24482,13.087,-18.53,43.68,2.47E+08
24483,11.974,-15.614,40.606,2.32E+08
24484,13.555,-20.698,40.564,2.14E+08
24485,13.121,-18.761,39.366,2.17E+08
24486,11.468,-19.527,42.444,1.74E+08
24487,10.296,-17.308,41.269,1.67E+08
24488,11.351,-16.246,42.539,2.17E+08
24489,11.987,2.1015,46.559,3.62E+08
24490,11.424,7.7287,48.819,1.43E+08
24491,11.352,2.9131,49.571,2.45E+08
24492,9.5717,3.1333,47.828,2.57E+08
24493,9.5437,7.4459,50.338,1.82E+08
24494,8.9455,6.9112,48.307,2.38E+08
24495,9.5132,4.4965,49.729,2.23E+08
24496,9.2727,5.1262,47.327,2.75E+08
24497,10.541,4.1155,46.499,3.24E+08
24498,16.976,-18.329,36.694,4.34E+08
24499,19.088,-21.577,34.137,4.19E+08
24500,19.151,-19.559,34.097,4.57E+08
24501,16.658,-19.086,33.879,2.85E+08
24502,16.85,-21.458,34.174,2.76E+08
24503,15.122,-20.029,36.185,2.83E+08
24504,11.737,8.76E-02,47.69,3.54E+08
24505,10.718,0.99121,42.813,5.38E+08
24506,10.994,-1.0056,42.653,4.12E+08
24507,10.096,0.32193,45.982,3.73E+08
24508,9.9993,-2.3978,45.016,3.45E+08
24509,9.2342,-0.23846,43.947,3.80E+08
24510,11.15,-2.903,43.283,3.75E+08
24511,11.065,1.3041,44.653,4.39E+08
24512,12.093,-10.802,46.625,3.02E+08
24513,9.2426,-7.4748,50.596,2.15E+08
24514,9.7728,-8.4154,48.561,2.28E+08
24515,9.4005,-10.385,48.137,1.98E+08
24516,9.6985,-9.4579,50.376,2.14E+08
24517,12.79,-15.966,44.479,2.70E+08
24518,11.639,-13.055,41.374,2.50E+08
24519,10.29,-12.201,44.952,2.34E+08
24520,11.011,-11.246,43.12,2.64E+08
24521,11.015,-13.688,43.307,2.39E+08
24522,11.284,12.85,49.318,9.93E+07
24523,9.5998,11.594,46.964,1.52E+08
24524,8.6422,12.146,49.281,1.64E+08
24525,9.442,10.249,50.737,1.27E+08
24526,8.8438,9.7148,48.705,1.75E+08
24527,11.857,-19.013,47.565,1.85E+08
24528,9.5406,-16.607,51.036,1.39E+08
24529,9.7512,-19.995,47.725,1.06E+08
24530,10.51,-20.554,50.707,1.14E+08
24531,10.756,-20.817,49.232,1.12E+08
24532,9.9607,-17.75,48.053,1.41E+08
24533,13.144,-14.952,38.548,3.05E+08
24534,14.73,-15.05,35.963,3.10E+08
24535,15.826,-17.157,35.001,2.92E+08
24536,14.29,-18.1,37.307,2.89E+08
24537,11.221,17.183,49.399,2.58E+08
24538,9.5575,13.909,47.068,1.78E+08
24539,9.1515,16.404,47.508,2.08E+08
24540,8.5999,14.461,49.385,1.96E+08
24541,9.4951,16.009,50.823,2.24E+08
24542,18.604,-10.018,34.65,6.81E+08
24543,18.321,-10.377,32.407,5.20E+08
24544,19.458,-12.848,31.734,4.82E+08
24545,20.475,-11.007,30.664,5.19E+08
24546,19.808,-9.1415,31.29,5.75E+08
24547,20.497,-20.882,32.737,4.50E+08
24548,18.148,-22.778,32.764,2.69E+08
24549,20.033,-20.81,31.078,3.04E+08
24550,21.206,-22.505,30.229,2.95E+08
24551,19.669,-23.726,31.297,2.73E+08
24552,9.4104,1.1105,48.988,2.45E+08
24553,9.3518,2.4737,50.889,2.12E+08
24554,9.3362,6.49E-04,50.853,2.14E+08
24555,17.193,-6.2539,36.26,7.99E+08
24556,18.598,-3.6624,34.47,9.32E+08
24557,15.244,-4.6809,35.349,6.39E+08
24558,16.923,-3.8766,33.924,7.14E+08
24559,15.068,-7.2206,35.656,5.22E+08
24560,15.154,-11.251,35.327,4.28E+08
24561,16.657,-9.1628,34.25,5.11E+08
24562,15.007,-9.0762,36.256,4.97E+08
24563,20.101,-1.8031,31.028,7.96E+08
24564,18.198,-3.8216,32.489,7.52E+08
24565,20.717,-3.542,30.651,7.70E+08
24566,19.594,-5.3322,31.392,7.17E+08
24567,9.1293,18.422,47.487,2.61E+08
24568,9.3746,19.935,50.061,3.04E+08
24569,9.4729,18.026,50.803,2.85E+08
24570,10.272,-20.337,45.588,1.17E+08
24571,10.481,-18.092,45.916,1.55E+08
24572,10.781,-20.345,44.19,1.30E+08
24573,10.663,-17.064,44.285,1.69E+08
24574,11.404,-21.21,45.016,1.24E+08
24575,18.023,-18.397,32.434,3.12E+08
24576,19.567,-16.672,31.646,3.84E+08
24577,18.216,-20.769,32.73,3.03E+08
24578,20.1,-18.801,31.043,3.38E+08
24579,-7.6837,-18.631,-43.146,1.96E+08
24580,-6.6812,-18.765,-42.175,2.10E+08
24581,7.4579,-18.395,-43.233,9.19E+07
24582,6.782,-18.87,-42.413,9.11E+07
24583,38.768,-19.896,-14.104,2.40E+08
24584,7.0166,-12.546,-57.733,1.94E+08
24585,8.0544,-13.532,-57.348,1.95E+08
24586,-8.0223,-13.952,-57.578,1.22E+08
24587,-6.3597,-12.74,-57.892,1.49E+08
24588,-11.888,-17.728,47.447,1.58E+08
24589,-10.571,-16.266,45.589,1.46E+08
24590,-10.461,-19.745,44.895,1.25E+08
24591,-11.059,-18.595,43.261,1.44E+08
24592,-10.886,-17.795,44.526,1.38E+08
24593,-11.368,-20.486,47.015,1.03E+08
24594,-10.41,-18.335,46.211,1.28E+08
24595,-12.017,-16.699,43.527,1.34E+08
24596,-12.215,-19.729,43.14,1.28E+08
24597,-9.8248,-15.976,48.594,1.65E+08
24598,-9.6038,-18.916,51.416,1.22E+08
24599,-8.6651,-16.514,50.829,1.35E+08
24600,-10.622,-20.196,50.019,1.22E+08
24601,-9.6643,-18.045,49.215,1.45E+08
24602,33.576,-13.648,24.271,1.46E+08
24603,34.933,-8.1253,23.785,1.65E+08
24604,31.102,-13.062,25.283,1.94E+08
24605,36.005,-13.522,23.513,1.09E+08
24606,31.067,-10.336,25.277,2.52E+08
24607,36.105,-10.837,23.476,1.12E+08
24608,32.729,-7.9447,24.542,2.32E+08
24609,31.857,-13.039,22.192,1.23E+08
24610,31.076,-10.589,23.071,1.65E+08
24611,33.228,-9.474,22.453,1.59E+08
24612,34.186,-11.881,22.147,1.29E+08
24613,30.165,-12.039,23.836,1.61E+08
24614,31.179,-15.689,25.257,1.98E+08
24615,32.155,-18.527,24.824,2.38E+08
24616,36.076,-16.179,23.498,1.44E+08
24617,34.497,-18.577,23.958,2.36E+08
24618,31.937,-15.672,22.173,1.31E+08
24619,31.103,-18.607,23.025,1.69E+08
24620,34.202,-16.966,21.887,1.52E+08
24621,30.475,-16.727,23.578,1.56E+08
24622,34.266,-14.514,22.128,1.28E+08
24623,32.319,-19.526,23.646,2.31E+08
24624,37.587,-7.9161,23.113,1.28E+08
24625,34.134,-5.0456,24.001,2.56E+08
24626,38.148,-5.1359,22.985,1.71E+08
24627,35.478,-4.4122,21.809,1.99E+08
24628,34.672,-6.5671,21.991,1.76E+08
24629,37.01,-6.421,21.535,1.54E+08
24630,29.751,-17.917,25.96,2.45E+08
24631,28.789,-12.38,26.475,2.84E+08
24632,27.881,-17.154,27.036,2.58E+08
24633,29.52,-15.084,23.286,1.72E+08
24634,28.058,-16.139,24.692,1.89E+08
24635,27.828,-14.085,24.93,2.08E+08
24636,27.075,-14.982,26.228,2.34E+08
24637,28.253,-6.934,26.706,4.43E+08
24638,29.806,-4.5595,25.795,4.30E+08
24639,25.927,-2.1123,26.167,5.23E+08
24640,27.934,-3.5578,25.197,4.58E+08
24641,27.459,-5.4724,24.895,4.10E+08
24642,25.53,-5.2929,26.593,4.76E+08
24643,28.869,-21.957,26.412,3.04E+08
24644,32.974,-20.816,24.485,3.04E+08
24645,28.783,-19.961,26.482,2.73E+08
24646,29.622,-20.839,23.636,2.35E+08
24647,28.994,-18.959,24.19,2.14E+08
24648,28.081,-21.2,24.991,2.60E+08
24649,30.838,-21.759,24.257,2.99E+08
24650,38.687,-13.366,22.928,7.05E+07
24651,39.106,-18.375,22.861,1.64E+08
24652,36.941,-18.481,23.281,2.15E+08
24653,39.658,-14.126,20.716,7.90E+07
24654,36.661,-16.862,21.238,1.18E+08
24655,36.725,-14.411,21.479,9.14E+07
24656,40.224,-16.72,20.787,1.07E+08
24657,37.932,-16.024,19.947,9.76E+07
24658,30.323,-7.2728,25.59,3.32E+08
24659,28.705,-9.9075,24.161,2.69E+08
24660,26.71,-10.026,26.093,3.23E+08
24661,27.958,-8.1868,24.657,3.13E+08
24662,27.794,-11.358,24.926,2.63E+08
24663,26.03,-8.0073,26.356,3.80E+08
24664,27.041,-12.255,26.224,2.82E+08
24665,39.378,-7.8675,22.802,1.04E+08
24666,39.77,-11.416,20.692,6.30E+07
24667,35.878,-9.2929,21.761,1.15E+08
24668,38.216,-9.1468,21.305,9.07E+07
24669,36.837,-11.7,21.455,8.36E+07
24670,31.075,-4.7617,21.831,2.53E+08
24671,33.266,-4.2563,22.532,2.66E+08
24672,30.309,-7.5261,23.331,2.45E+08
24673,30.037,-3.8907,24.13,3.43E+08
24674,29.562,-5.8053,23.827,2.92E+08
24675,32.46,-6.4112,22.713,2.46E+08
24676,37.469,-20.786,23.158,2.65E+08
24677,40.592,-21.542,21.2,2.02E+08
24678,37.196,-19.167,21.152,1.54E+08
24679,40.759,-19.025,20.701,1.57E+08
24680,38.248,-21.341,20.364,2.03E+08
24681,38.591,-22.059,22.129,2.72E+08
24682,27.044,-21.168,27.547,2.90E+08
24683,24.551,-22.634,27.579,2.71E+08
24684,26.735,-24.994,25.896,3.14E+08
24685,25.235,-25.311,26.822,3.04E+08
24686,26.299,-22.402,25.988,2.64E+08
24687,29.056,-22.961,25.254,2.97E+08
24688,34.788,-22.214,22.714,3.37E+08
24689,35.05,-19.268,21.608,2.10E+08
24690,36.444,-22.16,22.585,3.12E+08
24691,33.167,-21.828,23.366,3.04E+08
24692,37.262,-4.3454,21.485,1.71E+08
24693,41.009,-5.6512,20.525,1.21E+08
24694,40.401,-3.9021,20.857,1.54E+08
24695,38.793,-6.3542,21.21,1.29E+08
24696,25.187,-18.876,27.199,2.48E+08
24697,27.131,-18.179,25.265,2.12E+08
24698,26.219,-20.42,26.066,2.39E+08
24699,26.148,-17.022,26.801,2.50E+08
24700,-39.84,-6.8371,-8.1969,1.77E+08
24701,-38.721,-8.5144,-3.8096,2.21E+08
24702,-38.393,-4.9109,-8.1,1.32E+08
24703,-37.532,-4.8932,-6.0708,1.20E+08
24704,-37.423,-7.2416,-4.8574,1.59E+08
24705,-37.124,-5.4468,-3.4364,1.25E+08
24706,-37.515,-10.166,-5.3661,2.11E+08
24707,-37.039,-7.1229,-7.5985,1.45E+08
24708,-37.69,-8.9405,-7.0333,1.87E+08
24709,-42.025,-6.1919,-13.081,1.20E+08
24710,-40.971,-8.0159,-13.433,1.38E+08
24711,-40.263,-5.1247,-13.137,1.15E+08
24712,-39.276,-4.6696,-10.671,1.09E+08
24713,-40.315,-9.0764,-10.998,1.99E+08
24714,-37.921,-6.8816,-10.169,1.21E+08
24715,-38.573,-8.6992,-9.6039,1.63E+08
24716,-38.8,-6.2243,-11.758,1.24E+08
24717,-39.463,-6.8187,-13.378,1.29E+08
24718,-44.168,-8.4686,-17.24,6.00E+07
24719,-42.809,-5.2056,-17.617,6.83E+07
24720,-42.256,-7.6111,-15.73,9.85E+07
24721,-41.548,-4.72,-15.435,7.50E+07
24722,-37.122,-8.6721,-3.0687,1.86E+08
24723,-37.214,-11.597,-3.5774,2.37E+08
24724,-36.822,-10.69,-1.9419,2.16E+08
24725,-37.812,-6.8371,14.991,3.66E+08
24726,-37.472,-8.5144,10.476,3.79E+08
24727,-36.263,-4.6542,12.296,3.44E+08
24728,-36.076,-6.5883,10.572,3.14E+08
24729,-35.522,-8.617,11.797,2.90E+08
24730,-36.589,-4.9163,14.647,3.46E+08
24731,-36.21,-7.8699,13.853,3.16E+08
24732,-34.937,-6.1471,12.797,2.85E+08
24733,-39.115,-6.1919,20.18,2.72E+08
24734,-37.012,-4.6751,17.331,3.10E+08
24735,-37.821,-4.4485,19.559,3.06E+08
24736,-37.782,-9.0992,17.822,2.89E+08
24737,-38.024,-7.8333,20.537,2.32E+08
24738,-36.633,-7.6287,16.537,2.76E+08
24739,-36.678,-6.3035,18.998,2.68E+08
24740,-38.687,-4.0438,22.045,2.42E+08
24741,-38.89,-7.4286,23.023,1.64E+08
24742,-39.393,-4.5557,24.336,2.01E+08
24743,-37.544,-5.8988,21.483,1.99E+08
24744,-37.144,-5.023,23.554,1.92E+08
24745,-35.898,-9.7403,7.688,2.77E+08
24746,-36.09,-8.0188,8.7577,2.92E+08
24747,-35.537,-10.047,9.9828,2.75E+08
24748,-36.286,-11.586,9.2907,3.02E+08
24749,-1.3513,-20.546,-37.615,1.31E+08
24750,-1.3023,-22.818,-37.578,1.33E+08
24751,0.75922,-19.659,-39.919,1.20E+08
24752,1.2928,-21.413,-37.598,1.37E+08
24753,2.4658,-19.819,-39.678,1.28E+08
24754,-1.4864,-19.786,-39.631,1.28E+08
24755,-15.253,-9.7256,49.319,3.96E+08
24756,-17.069,-7.0865,49.885,4.61E+08
24757,-16.447,-4.767,49.966,5.39E+08
24758,-13.744,-7.8354,49.479,3.81E+08
24759,-12.994,-5.8603,49.512,4.23E+08
24760,-15.184,-6.1588,48.876,5.06E+08
24761,-11.424,-6.7524,51.253,4.15E+08
24762,-13.605,-4.7408,50.235,6.76E+08
24763,-14.607,-0.52475,49.885,1.19E+09
24764,-13.622,-1.2603,48.531,1.06E+09
24765,-12.917,-1.4977,49.66,1.09E+09
24766,-16.945,-1.5909,49.434,7.01E+08
24767,-14.808,-1.3272,48.574,7.03E+08
24768,-19.835,-15.231,-45.765,1.61E+08
24769,-19.664,-13.68,-45.066,1.80E+08
24770,-12.063,-24.413,45.385,4.17E+07
24771,-11.137,-23.844,49.2,6.33E+07
24772,-10.703,-23.609,48.436,6.37E+07
24773,-9.3633,-21.907,51.709,7.44E+07
24774,-10.382,-23.187,50.313,7.57E+07
24775,-11.301,2.0184,40.741,8.07E+08
24776,-10.831,0.6593,40.11,6.92E+08
24777,-11.347,-0.48027,38.081,6.14E+08
24778,-10.398,1.8848,41.684,6.22E+08
24779,-9.8607,3.2693,43.383,6.37E+08
24780,58.645,8.6877,4.6578,6.76E+07
24781,59.457,8.1857,5.7549,6.20E+07
24782,60.231,9.4938,5.5152,6.18E+07
24783,57.596,7.5041,4.4799,6.67E+07
24784,56.052,5.752,4.1351,6.21E+07
24785,57.654,6.2674,4.753,5.75E+07
24786,54.318,3.8345,3.6748,4.97E+07
24787,55.205,3.4743,5.214,5.74E+07
24788,56.806,4.7284,4.8086,5.21E+07
24789,56.762,5.3295,4.5837,5.60E+07
24790,54.889,4.261,4.3222,6.03E+07
24791,52.28,1.5298,2.9394,2.80E+07
24792,54.367,2.4952,4.923,4.81E+07
24793,54.05,3.2818,4.0311,5.02E+07
24794,49.594,-1.4399,1.7467,1.18E+07
24795,50.668,-1.3945,3.3801,2.05E+07
24796,51.61,0.24793,4.1838,3.99E+07
24797,46.674,-4.674,5.88E-02,9.07E+06
24798,47.982,-4.9204,1.996,9.70E+06
24799,49.185,-3.0366,2.6291,1.44E+07
24800,43.873,-7.7802,-2.0108,3.39E+07
24801,46.549,-6.5077,1.0581,1.18E+07
24802,44.799,-7.9701,-5.81E-02,1.05E+07
24803,43.436,-9.4827,-1.192,3.66E+07
24804,-19.79,-19.922,-41.588,2.93E+07
24805,-18.768,-18.464,-42.377,3.36E+07
24806,-19.546,-18.892,-41.439,4.36E+07
24807,-19.241,-18.827,-43.883,2.33E+07
24808,-38.845,-0.47262,20.771,3.65E+08
24809,-38.472,-1.37,22.143,3.05E+08
24810,-39.178,-1.882,24.435,2.66E+08
24811,-37.593,-0.46901,16.54,4.09E+08
24812,-36.886,-1.5945,17.848,3.37E+08
24813,-37.695,-1.368,20.076,3.35E+08
24814,-36.967,-0.46496,12.172,4.20E+08
24815,-36.088,-1.3304,13.34,3.58E+08
24816,-36.414,-1.5925,15.69,3.60E+08
24817,-35.783,-1.2852,8.7973,3.20E+08
24818,-35.934,-1.3285,11.136,3.51E+08
24819,-38.519,-0.46495,-5.5681,4.42E+07
24820,-37.006,-1.5675,-4.9854,3.76E+07
24821,-36.598,-2.1211,-2.3511,5.25E+07
24822,-39.894,-0.469,-9.7607,6.20E+07
24823,-38.402,-1.5871,-9.1584,6.54E+07
24824,-37.541,-1.5694,-7.1291,4.92E+07
24825,-41.861,-0.47262,-13.71,5.26E+07
24826,-39.242,-1.5891,-11.202,6.19E+07
24827,-44.355,-11.606,-17.867,5.52E+07
24828,-43.02,-11.591,-16.081,9.26E+07
24829,11.117,-23.842,49.257,5.58E+07
24830,11.353,-23.993,46.387,5.08E+07
24831,10.782,-23.617,48.017,5.54E+07
24832,10.185,-22.924,51.465,6.80E+07
24833,10.431,-23.187,49.989,6.42E+07
24834,53.413,-23.897,3.0125,1.20E+08
24835,51.194,-22.911,3.838,1.04E+08
24836,52.02,-23.828,2.8647,1.16E+08
24837,57.681,-22.574,4.1562,1.25E+08
24838,53.336,-22.425,4.5795,1.08E+08
24839,56.014,-22.618,4.4222,1.19E+08
24840,54.162,-23.342,3.6062,1.19E+08
24841,61.043,-20.646,5.0978,1.26E+08
24842,58.137,-21.776,4.8307,1.22E+08
24843,38.944,-24.071,21.932,2.94E+08
24844,19.376,0.76242,-58.873,2.73E+08
24845,20.526,-0.50726,-59.117,2.22E+08
24846,-38.736,-2.86E-11,-32.744,6.96E+07
24847,-35.474,-2.62E-11,-32.686,1.04E+08
24848,-40.416,-2.99E-11,-37.049,4.79E+07
24849,-34.6,-2.56E-11,-35.783,1.08E+08
24850,-41.073,-3.04E-11,-34.298,5.08E+07
24851,-35.568,-2.63E-11,-38.576,6.29E+07
24852,-39.242,-2.0297,-35.381,5.51E+07
24853,-37.821,-2.2189,-36.989,5.64E+07
24854,-37.079,-2.0268,-34.17,7.55E+07
24855,-35.908,-2.0997,-36.277,7.73E+07
24856,-28.445,-2.10E-11,40.876,1.92E+08
24857,-33.693,-2.49E-11,38.84,1.88E+08
24858,-33.4,-2.47E-11,43.458,1.80E+08
24859,-30.813,-2.28E-11,44.166,1.88E+08
24860,-30.679,-2.27E-11,38.682,1.85E+08
24861,-34.538,-2.55E-11,41.595,1.81E+08
24862,-29.195,-2.16E-11,42.862,1.93E+08
24863,-29.819,-2.2667,41.852,1.31E+08
24864,-33.19,-2.2999,42.066,1.19E+08
24865,-29.951,-2.0802,39.603,1.42E+08
24866,-32.09,-1.9998,40.545,1.31E+08
24867,-31.461,-1.8075,43.125,1.32E+08
24868,-47.83,-3.54E-11,-42.815,6.13E+06
24869,-44.686,-3.30E-11,-41.811,1.41E+07
24870,-48.401,-3.58E-11,-45.945,4.57E+06
24871,-46.578,-3.44E-11,-47.485,4.43E+06
24872,-43.694,-3.23E-11,-44.714,9.05E+06
24873,-44.518,-3.29E-11,-47.086,4.80E+06
24874,-44.878,-2.4626,-45.38,6.07E+06
24875,-46.105,-2.5235,-43.082,6.86E+06
24876,-46.886,-2.1022,-45.784,5.14E+06
24877,-48.71,-1.7837,-45.022,4.62E+06
24878,-44.307,-1.54,-43.116,1.04E+07
24879,-46.205,-1.0423,-42.196,8.42E+06
24880,-45.542,-1.559,-47.518,4.51E+06
24881,-47.831,-2.5081,-43.769,5.24E+06
24882,-39.699,-2.93E-11,47.557,1.85E+08
24883,-35.653,-2.64E-11,50.459,1.92E+08
24884,-36.702,-2.71E-11,47.769,1.84E+08
24885,-39.765,-2.94E-11,51.776,1.75E+08
24886,-40.78,-3.01E-11,49.023,1.80E+08
24887,-36.925,-2.73E-11,52.142,1.85E+08
24888,-39.689,-2.1378,48.642,1.21E+08
24889,-37.453,-1.6808,50.398,1.36E+08
24890,-39.785,-2.0766,50.605,1.24E+08
24891,-37.313,-2.6035,48.178,1.06E+08
24892,-24.487,-1.81E-11,32.057,2.24E+08
24893,-28.352,-2.10E-11,33.641,2.02E+08
24894,-26.193,-1.94E-11,28.385,2.06E+08
24895,-28.278,-2.09E-11,28.79,2.15E+08
24896,-25.974,-1.92E-11,33.391,2.15E+08
24897,-24.892,-1.84E-11,29.893,2.09E+08
24898,-29.583,-2.19E-11,31.233,2.11E+08
24899,-24.987,-1.4342,29.29,1.99E+08
24900,-27.107,-2.1165,32.706,1.98E+08
24901,-27.081,-1.8836,29.893,2.02E+08
24902,-25.444,-1.696,31.43,2.11E+08
24903,-31.464,-2.33E-11,-27.371,1.45E+08
24904,-32.926,-2.43E-11,-24.503,1.31E+08
24905,-28.643,-2.12E-11,-27.774,1.85E+08
24906,-30.599,-2.26E-11,-22.266,1.32E+08
24907,-27.234,-2.01E-11,-25.829,1.84E+08
24908,-29.733,-2.3637,-26.492,1.56E+08
24909,-29.082,-1.751,-23.464,1.44E+08
24910,-31.303,-1.8197,-24.927,1.39E+08
24911,-22.587,-1.67E-11,41.058,2.82E+08
24912,-27.475,-2.03E-11,38.392,2.02E+08
24913,-23.045,-1.70E-11,39.089,2.48E+08
24914,-25.098,-1.86E-11,38.142,2.18E+08
24915,-23.611,-1.75E-11,42.745,2.70E+08
24916,-25.992,-1.92E-11,42.572,2.14E+08
24917,-26.616,-2.2667,41.562,1.70E+08
24918,-26.748,-2.0802,39.314,1.78E+08
24919,-24.492,-1.872,42.09,2.10E+08
24920,-24.355,-1.895,39.393,2.11E+08
24921,31.993,2.37E-11,-24.35,1.78E+08
24922,29.941,2.21E-11,-25.97,1.78E+08
24923,34.141,2.52E-11,-24.671,1.97E+08
24924,33.304,2.46E-11,-29.244,1.88E+08
24925,30.24,2.24E-11,-28.175,1.90E+08
24926,33.929,-2.2343,-28.202,1.80E+08
24927,34.324,-2.674,-25.462,1.76E+08
24928,31.956,-2.622,-28.831,1.70E+08
24929,31.67,-1.9828,-26.308,1.69E+08
24930,35.089,-1.0868,-26.959,1.94E+08
24931,-47.629,-3.52E-11,-30.087,2.38E+07
24932,-47.075,-3.48E-11,-32.486,2.20E+07
24933,-50.879,-3.76E-11,-33.605,8.09E+06
24934,-48.642,-3.60E-11,-33.896,1.31E+07
24935,-49.83,-2.4084,-30.353,9.87E+06
24936,-51.079,-1.7212,-32.316,7.27E+06
24937,-48.652,-1.5905,-32.009,1.33E+07
24938,-49.311,-1.352,-29.021,1.23E+07
24939,-51.74,-1.1151,-30.797,8.97E+06
24940,-24.07,-1.78E-11,-34.043,2.93E+08
24941,-28.837,-2.13E-11,-36.336,2.17E+08
24942,-26.89,-1.99E-11,-33.641,2.49E+08
24943,-27.339,-2.02E-11,-39.069,1.99E+08
24944,-24.328,-1.80E-11,-38.661,3.70E+08
24945,-27.204,-2.3203,-37.324,2.30E+08
24946,-25.513,-1.9983,-39.507,2.30E+08
24947,-24.484,-1.5575,-37.262,3.22E+08
24948,-25.842,-1.9009,-33.511,2.44E+08
24949,-28.495,-1.9986,-34.799,2.15E+08
24950,-25.083,-2.3888,-35.25,2.70E+08
24951,-36.731,-2.72E-11,-30.087,1.03E+08
24952,-38.192,-2.82E-11,-27.219,8.83E+07
24953,-41.36,-3.06E-11,-27.34,6.40E+07
24954,-42.883,-3.17E-11,-29.3,5.17E+07
24955,-42.33,-3.13E-11,-31.7,5.10E+07
24956,-40.006,-2.1303,-27.897,7.07E+07
24957,-41.771,-2.0192,-30.937,5.19E+07
24958,-37.868,-1.9952,-29.435,8.55E+07
24959,-40.499,-2.0297,-32.782,5.27E+07
24960,-38.335,-2.0268,-31.572,7.35E+07
24961,-42.186,-2.2124,-28.982,5.21E+07
24962,-40.226,-2.944,-30.034,6.28E+07
24963,-38.147,-2.82E-11,45.538,1.85E+08
24964,-43.512,-3.22E-11,44.551,1.84E+08
24965,-39.286,-2.90E-11,43.675,1.87E+08
24966,-42.225,-3.12E-11,46.792,1.81E+08
24967,-41.628,-3.08E-11,43.596,1.89E+08
24968,-41.134,-2.1378,46.411,1.23E+08
24969,-40.686,-1.8647,44.199,1.31E+08
24970,-42.596,-1.68,45.388,1.35E+08
24971,-38.758,-2.6035,45.947,1.07E+08
24972,-30.199,-2.23E-11,-43.981,8.26E+07
24973,-32.666,-2.41E-11,-44.04,4.13E+07
24974,-32.942,-2.44E-11,-48.032,1.12E+07
24975,-34.043,-2.52E-11,-46.718,1.54E+07
24976,-31.499,-2.6098,-48.668,1.73E+07
24977,-30.179,-1.4351,-47.637,2.44E+07
24978,-32.794,-2.3151,-45.677,2.20E+07
24979,-30.349,-2.1242,-45.701,3.90E+07
24980,-46.497,-3.44E-11,-39.759,1.41E+07
24981,-52.572,-3.89E-11,-39.894,3.38E+06
24982,-50.211,-3.71E-11,-43.894,4.13E+06
24983,-50.957,-3.77E-11,-38.128,4.50E+06
24984,-48.72,-3.60E-11,-38.419,9.47E+06
24985,-53.013,-3.92E-11,-42.914,3.32E+06
24986,-47.916,-2.5235,-41.031,6.50E+06
24987,-51.879,-2.2485,-41.21,3.70E+06
24988,-49.996,-2.2913,-38.99,4.78E+06
24989,-50.52,-1.7837,-42.97,4.08E+06
24990,-48.016,-1.0423,-40.145,8.25E+06
24991,-49.641,-2.5081,-41.718,4.73E+06
24992,-34.101,-2.52E-11,48.441,1.93E+08
24993,-31.515,-2.33E-11,49.149,1.99E+08
24994,-30.482,-2.25E-11,51.846,2.19E+08
24995,-32.121,-2.37E-11,53.811,1.99E+08
24996,-34.324,-2.54E-11,52.813,1.93E+08
24997,-30.274,-2.0349,50.121,1.43E+08
24998,-33.188,-2.1094,52.569,1.35E+08
24999,-34.851,-1.6808,51.069,1.45E+08
25000,-31.377,-1.6895,52.364,1.53E+08
25001,-33.178,-2.2286,50.149,1.28E+08
25002,33.631,2.49E-11,-39.518,1.66E+08
25003,31.468,2.33E-11,-35.405,1.91E+08
25004,30.914,2.29E-11,-37.791,1.92E+08
25005,33.564,2.48E-11,-34.235,1.82E+08
25006,32.179,-2.4008,-36.286,1.71E+08
25007,34.51,-2.1913,-35.78,1.67E+08
25008,35.412,-1.1819,-38.352,1.51E+08
25009,35.727,-0.82727,-35.745,1.67E+08
25010,32.716,-1.1627,-38.025,1.68E+08
25011,33.372,2.47E-11,-45.168,1.32E+08
25012,30.706,2.27E-11,-50.037,1.26E+08
25013,30.706,2.27E-11,-46.261,1.50E+08
25014,33.471,2.47E-11,-50.912,8.53E+07
25015,30.352,2.24E-11,-48.206,1.44E+08
25016,31.508,-2.3179,-49.278,1.03E+08
25017,34.112,-2.6074,-46.29,9.56E+07
25018,34.131,-2.4589,-49.141,8.40E+07
25019,31.434,-2.0963,-47.036,1.18E+08
25020,35.392,-1.0946,-46.929,9.16E+07
25021,35.47,-1.238,-49.661,7.33E+07
25022,-37.002,-2.74E-11,33.891,2.24E+08
25023,-36.524,-2.70E-11,29.021,2.50E+08
25024,-39.939,-2.95E-11,33.031,2.33E+08
25025,-35.219,-2.60E-11,31.325,2.26E+08
25026,-38.481,-1.6641,28.657,2.19E+08
25027,-39.556,-1.8108,30.661,1.91E+08
25028,-40.907,-1.2764,32.936,1.86E+08
25029,-38.176,-1.6988,33.029,1.83E+08
25030,-36.991,-1.8214,30.808,1.96E+08
25031,-45.234,-3.34E-11,-52.306,3.39E+06
25032,-45.074,-3.33E-11,-56.433,4.20E+06
25033,-41.086,-3.04E-11,-53.285,6.42E+06
25034,-45.996,-3.40E-11,-54.229,3.81E+06
25035,-43.174,-3.19E-11,-51.907,3.65E+06
25036,-43.902,-1.5066,-55.7,4.98E+06
25037,-42.392,-1.6881,-53.905,5.96E+06
25038,-44.198,-1.559,-52.339,3.94E+06
25039,-44.16,-2.4592,-53.975,4.82E+06
25040,-19.496,-1.44E-11,33.823,2.80E+08
25041,-21.414,-1.58E-11,35.31,2.61E+08
25042,-23.467,-1.73E-11,34.363,2.30E+08
25043,-20.458,-1.51E-11,31.497,2.35E+08
25044,-22.384,-1.65E-11,30.866,2.28E+08
25045,-20.389,-1.552,32.025,2.35E+08
25046,-19.981,-1.9089,35.036,2.79E+08
25047,-22.724,-1.895,35.614,2.34E+08
25048,-22.936,-1.696,32.403,2.29E+08
25049,-21.614,-3.3426,33.513,2.48E+08
25050,-36.881,-2.73E-11,-21.343,9.76E+07
25051,-35.458,-2.62E-11,-16.364,8.00E+07
25052,-34.555,-2.55E-11,-19.107,9.75E+07
25053,-38.918,-2.88E-11,-19.853,8.34E+07
25054,-36.495,-2.3262,-19.493,9.51E+07
25055,-38.528,-1.8284,-16.972,7.92E+07
25056,-34.658,-1.6134,-17.63,8.94E+07
25057,-36.383,-1.982,-17.079,8.65E+07
25058,21.375,1.58E-11,-32.537,2.26E+08
25059,23.606,1.75E-11,-32.455,2.16E+08
25060,20.166,1.49E-11,-30.338,1.90E+08
25061,22.372,1.65E-11,-28.805,1.85E+08
25062,24.877,1.84E-11,-30.204,1.97E+08
25063,21.63,-1.8187,-29.988,1.76E+08
25064,23.51,-1.6154,-28.427,1.70E+08
25065,24.41,-2.0654,-31.624,1.86E+08
25066,21.741,-2.2009,-32.658,1.91E+08
25067,24.261,-2.5047,-29.621,1.72E+08
25068,-33.038,-2.44E-11,24.526,2.39E+08
25069,-31.139,-2.30E-11,19.808,2.27E+08
25070,-30.429,-2.25E-11,24.386,2.24E+08
25071,-29.444,-2.18E-11,22.031,2.16E+08
25072,-33.481,-1.3787,19.643,2.56E+08
25073,-34.289,-1.1522,21.87,2.42E+08
25074,-30.626,-2.0815,21.372,2.00E+08
25075,-29.024,-1.5933,23.073,2.02E+08
25076,-33.146,-3.0071,21.309,2.16E+08
25077,-32.747,-2.1313,23.38,2.14E+08
25078,-30.481,-2.9031,24.018,2.06E+08
25079,-47.872,-3.54E-11,52.596,1.49E+08
25080,-43.546,-3.22E-11,52.764,1.63E+08
25081,-47.544,-3.51E-11,50.202,1.60E+08
25082,-45.689,-3.38E-11,53.555,1.51E+08
25083,-44.561,-3.29E-11,50.011,1.68E+08
25084,-46.245,-1.9639,52.578,1.13E+08
25085,-44.532,-1.7122,53.815,1.20E+08
25086,-43.567,-2.0766,51.593,1.11E+08
25087,-45.466,-1.6201,50.273,1.22E+08
25088,-37.959,-2.81E-11,37.649,2.00E+08
25089,-42.201,-3.12E-11,38.799,2.00E+08
25090,-38.804,-2.87E-11,40.404,1.95E+08
25091,-40.895,-3.02E-11,36.789,2.12E+08
25092,-41.146,-3.04E-11,40.325,1.97E+08
25093,-41.864,-1.2764,36.693,1.64E+08
25094,-39.133,-1.6988,36.786,1.56E+08
25095,-40.715,-1.8896,38.948,1.42E+08
25096,-38.378,-2.5639,38.666,1.21E+08
25097,-38.507,-2.85E-11,59.939,1.54E+08
25098,-39.77,-2.94E-11,55.765,1.65E+08
25099,-36.357,-2.69E-11,59.087,1.66E+08
25100,-39.998,-2.96E-11,58.079,1.53E+08
25101,-36.93,-2.73E-11,56.13,1.74E+08
25102,-37.542,-1.9832,59.104,1.15E+08
25103,-38.368,-1.9956,56.667,1.16E+08
25104,-36.151,-1.8239,57.693,1.22E+08
25105,-27.42,-2.03E-11,48.065,2.39E+08
25106,-26.387,-1.95E-11,50.762,2.52E+08
25107,-23.42,-1.73E-11,46.933,2.88E+08
25108,-25.801,-1.91E-11,46.76,2.45E+08
25109,-26.179,-2.0349,49.037,1.94E+08
25110,-23.552,-1.4192,50.044,2.56E+08
25111,-24.302,-1.872,46.278,2.06E+08
25112,-23.551,-2.3837,47.915,2.22E+08
25113,-20.39,-1.51E-11,39.56,3.14E+08
25114,-20.956,-1.55E-11,43.217,3.33E+08
25115,-18.108,-1.34E-11,43.257,4.48E+08
25116,-17.848,-1.32E-11,40.576,4.05E+08
25117,-19.769,-2.0614,42.552,3.32E+08
25118,-18.958,-1.9089,39.286,3.16E+08
25119,-21.837,-1.872,42.562,2.80E+08
25120,-21.7,-1.895,39.865,2.79E+08
25121,-17.914,-2.6534,41.325,3.28E+08
25122,28.858,2.13E-11,-23.558,1.64E+08
25123,33.058,2.44E-11,-22.258,1.82E+08
25124,32.783,2.42E-11,-20.27,1.71E+08
25125,30.816,2.28E-11,-19.803,1.46E+08
25126,29.418,-2.2803,-21.942,1.38E+08
25127,31.239,-1.5069,-19.552,1.37E+08
25128,30.587,-1.9828,-23.896,1.54E+08
25129,31.55,-2.0945,-21.596,1.50E+08
25130,30.086,-1.2116,-20.589,1.37E+08
25131,-34.931,-2.58E-11,-27.16,1.20E+08
25132,-32.595,-2.41E-11,-33.126,1.35E+08
25133,-30.648,-2.27E-11,-30.431,1.78E+08
25134,-31.738,-2.3637,-29.149,1.46E+08
25135,-33.308,-1.8197,-27.584,1.28E+08
25136,-32.253,-1.9986,-31.59,1.40E+08
25137,-34.607,-1.9952,-29.376,1.18E+08
25138,-35.074,-2.0268,-31.513,1.07E+08
25139,-44.01,-3.25E-11,-36.005,2.63E+07
25140,-45.577,-3.37E-11,-37.415,1.82E+07
25141,-38.505,-2.85E-11,-40.282,4.09E+07
25142,-42.361,-3.13E-11,-41.658,1.70E+07
25143,-40.648,-1.8124,-40.757,2.24E+07
25144,-44.229,-2.296,-37.48,1.96E+07
25145,-42.18,-2.0297,-37.087,2.99E+07
25146,-40.758,-2.2189,-38.695,3.15E+07
25147,-42.974,-1.54,-40.06,1.87E+07
25148,-44.872,-1.0423,-39.141,1.68E+07
25149,-25.007,-1.85E-11,-31.236,2.67E+08
25150,-23.597,-1.74E-11,-29.292,2.63E+08
25151,-19.772,-1.46E-11,-32.291,3.08E+08
25152,-21.977,-2.5282,-30.21,2.57E+08
25153,-20.7,-1.7832,-33.17,3.05E+08
25154,-22.601,-1.5575,-34.858,3.26E+08
25155,-23.958,-1.9009,-31.107,2.65E+08
25156,-23.199,-2.3888,-32.845,2.86E+08
25157,-19.737,-1.5021,-31.171,2.56E+08
25158,31,2.29E-11,-43.386,1.67E+08
25159,30.949,2.29E-11,-40.565,1.79E+08
25160,31.872,-2.3254,-42.081,1.40E+08
25161,34.406,-2.6074,-43.414,1.15E+08
25162,35.447,-1.1819,-41.127,1.36E+08
25163,31.729,-2.0963,-44.16,1.35E+08
25164,35.686,-1.0946,-44.054,1.12E+08
25165,32.752,-1.1627,-40.8,1.54E+08
25166,31.098,2.30E-11,-52.904,1.00E+08
25167,29,2.14E-11,-53.943,1.17E+08
25168,27.98,2.07E-11,-50.198,1.58E+08
25169,26.535,-1.758,-50.407,1.58E+08
25170,29.135,-2.3179,-51.271,1.18E+08
25171,30.066,-2.5256,-53.358,9.47E+07
25172,27.554,-2.2157,-52.835,1.25E+08
25173,28.786,2.13E-11,-36.452,2.04E+08
25174,31.436,2.32E-11,-32.896,1.91E+08
25175,27.1,2.00E-11,-34.078,2.14E+08
25176,28.372,2.10E-11,-31.826,1.96E+08
25177,27.904,-2.0654,-33.247,1.84E+08
25178,30.051,-2.4008,-34.948,1.82E+08
25179,30.088,-2.622,-32.483,1.75E+08
25180,28.072,-1.6245,-35.523,1.91E+08
25181,30.589,-1.1627,-36.686,1.79E+08
25182,-58.001,-4.29E-11,-40.608,2.79E+06
25183,-53.888,-3.98E-11,-37.258,2.37E+06
25184,-55.945,-4.14E-11,-42.043,2.29E+06
25185,-56.092,-2.2882,-37.68,4.77E+06
25186,-54.811,-2.2485,-40.34,3.25E+06
25187,-58.07,-1.9753,-39.142,4.19E+06
25188,-52.928,-2.2913,-38.12,3.16E+06
25189,-56.337,-0.9783,-40.464,2.89E+06
25190,24.599,1.82E-11,-25.983,1.64E+08
25191,27.105,2.00E-11,-27.383,1.77E+08
25192,25.348,-2.1963,-23.234,1.37E+08
25193,25.737,-1.6154,-25.605,1.49E+08
25194,27.366,-2.2803,-23.563,1.38E+08
25195,28.535,-1.9828,-25.516,1.55E+08
25196,33.388,2.47E-11,15.697,1.94E+08
25197,30.646,2.27E-11,19.763,2.96E+08
25198,34.005,2.51E-11,18.364,2.35E+08
25199,30.167,-2.1963,16.813,2.04E+08
25200,32.567,-1.5084,16.547,1.97E+08
25201,31.21,-2.3164,18.596,2.31E+08
25202,33.402,-1.811,19.297,2.28E+08
25203,-48.96,-3.62E-11,-48.564,3.13E+06
25204,-53.585,-3.96E-11,-46.044,2.48E+06
25205,-50.685,-3.75E-11,-48.83,2.74E+06
25206,-53.105,-1.8785,-47.196,3.10E+06
25207,-49.723,-1.9118,-48.89,3.48E+06
25208,-51.624,-1.4851,-49.43,2.91E+06
25209,-49.267,-2.1022,-46.863,4.10E+06
25210,-51.091,-1.7837,-46.1,3.62E+06
25211,-51.585,-2.8925,-48.015,3.68E+06
25212,-32.723,-2.42E-11,36.355,1.93E+08
25213,-36.583,-2.70E-11,39.269,1.93E+08
25214,-38.674,-2.86E-11,35.654,2.10E+08
25215,-33.954,-2.51E-11,33.947,2.07E+08
25216,-36.912,-1.6988,35.651,1.60E+08
25217,-34.161,-2.3597,35.508,1.50E+08
25218,-35.727,-1.8214,33.43,1.74E+08
25219,-34.134,-1.9998,38.219,1.38E+08
25220,-36.156,-2.5639,37.531,1.28E+08
25221,-39.56,-2.92E-11,-24.412,8.24E+07
25222,-34.066,-2.52E-11,-22.055,1.06E+08
25223,-38.43,-2.84E-11,-22.801,9.14E+07
25224,-38.206,-2.1303,-24.97,8.89E+07
25225,-36.007,-2.3262,-22.441,1.03E+08
25226,-34.77,-1.8197,-24.716,1.14E+08
25227,-36.069,-1.9952,-26.508,1.03E+08
25228,-36.562,-3.5488,-24.522,1.04E+08
25229,-29.774,-2.20E-11,-33.528,1.77E+08
25230,-30.222,-2.23E-11,-38.957,1.32E+08
25231,-32.689,-2.42E-11,-39.016,1.00E+08
25232,-30.088,-2.3203,-37.211,1.58E+08
25233,-31.379,-1.9986,-34.687,1.43E+08
25234,-32.292,-2.2169,-38.336,1.07E+08
25235,-34.199,-2.0268,-34.61,1.09E+08
25236,-33.028,-2.0997,-36.717,1.13E+08
25237,-44.251,-3.27E-11,-26.494,4.79E+07
25238,-41.597,-3.08E-11,-22.922,6.98E+07
25239,-44.061,-1.6972,-23.956,4.62E+07
25240,-41.374,-2.1303,-25.091,6.62E+07
25241,-42.467,-2.314,-22.222,6.07E+07
25242,-43.554,-2.2124,-26.176,4.77E+07
25243,-32.564,-2.41E-11,46.458,1.93E+08
25244,-36.289,-2.68E-11,43.887,1.87E+08
25245,-35.901,-1.6808,48.379,1.38E+08
25246,-37.689,-1.8647,44.411,1.31E+08
25247,-34.941,-2.2999,44.357,1.15E+08
25248,-33.212,-1.8075,45.416,1.29E+08
25249,-34.228,-2.2286,47.459,1.22E+08
25250,-35.761,-2.6035,46.159,1.09E+08
25251,28.283,2.09E-11,-41.658,1.95E+08
25252,27.98,2.07E-11,-46.423,1.79E+08
25253,26.535,-1.758,-46.632,1.78E+08
25254,29.205,-2.3254,-43.174,1.57E+08
25255,26.926,-1.8722,-42.977,1.76E+08
25256,29.062,-2.0963,-45.253,1.54E+08
25257,26.527,-2.281,-44.798,1.72E+08
25258,-26.418,-1.95E-11,-28.889,2.15E+08
25259,-28.917,-2.3637,-29.552,1.87E+08
25260,-26.779,-1.9009,-30.704,2.18E+08
25261,-29.432,-1.9986,-31.992,1.82E+08
25262,-32.172,-2.38E-11,26.634,2.33E+08
25263,-33.476,-2.47E-11,29.077,2.38E+08
25264,-36.032,-1.1522,24.118,2.68E+08
25265,-36.739,-1.6641,26.409,2.25E+08
25266,-33.45,-2.1135,27.656,2.13E+08
25267,-35.248,-1.8214,28.56,2.10E+08
25268,-34.49,-2.1313,25.627,2.25E+08
25269,-32.642,-2.41E-11,-17.076,9.01E+07
25270,-33.826,-2.50E-11,-11.877,6.06E+07
25271,-31.373,-2.1963,-13.711,7.68E+07
25272,-35.629,-1.3733,-12.474,6.56E+07
25273,-32.746,-1.6134,-15.598,8.24E+07
25274,-33.614,-1.7271,-13.12,6.54E+07
25275,-34.47,-1.982,-15.048,7.86E+07
25276,26.546,1.96E-11,-36.463,2.17E+08
25277,29.155,-2.3254,-40.354,1.68E+08
25278,26.876,-1.8722,-40.156,1.86E+08
25279,27.518,-1.6245,-37.909,1.93E+08
25280,30.034,-1.1627,-39.072,1.81E+08
25281,-28.945,-2.14E-11,49.864,2.18E+08
25282,-28.36,-2.10E-11,45.862,2.05E+08
25283,-28.737,-2.0349,48.139,1.51E+08
25284,-30.626,-1.8075,46.125,1.41E+08
25285,-31.641,-2.2286,48.167,1.32E+08
25286,-18.931,-1.40E-11,36.104,3.01E+08
25287,-17.975,-1.33E-11,32.291,2.77E+08
25288,-16.388,-1.21E-11,37.12,3.87E+08
25289,-16.071,-1.19E-11,33.096,2.91E+08
25290,-17.906,-1.552,32.82,2.74E+08
25291,-15.114,-1.4917,34.238,2.99E+08
25292,-17.498,-1.9089,35.83,3.22E+08
25293,-15.322,-1.4913,36.612,3.50E+08
25294,31.765,2.35E-11,-54.818,7.46E+07
25295,31.9,-2.3179,-52.146,7.61E+07
25296,32.831,-2.5256,-54.233,5.23E+07
25297,34.523,-2.4589,-52.008,5.53E+07
25298,33.393,-1.1107,-55.733,4.07E+07
25299,34.663,-1.0965,-55.721,3.40E+07
25300,34.706,-1.7174,-53.981,4.36E+07
25301,35.863,-1.238,-52.529,4.39E+07
25302,33.764,2.50E-11,-12.541,1.22E+08
25303,33.813,2.50E-11,-16.651,1.54E+08
25304,31.846,2.35E-11,-16.184,1.28E+08
25305,31.085,-2.1963,-13.895,9.28E+07
25306,32.27,-1.5069,-15.933,1.18E+08
25307,32.76,-1.9583,-13.333,1.02E+08
25308,34.877,-1.7532,-13.696,1.49E+08
25309,-29.552,-2.18E-11,54.526,2.16E+08
25310,-27.705,-2.0349,50.837,1.63E+08
25311,-25.078,-1.4192,51.843,2.27E+08
25312,-26.892,-2.1854,53.49,1.57E+08
25313,-28.807,-1.6895,53.079,1.72E+08
25314,-31.19,-2.31E-11,-41.749,1.04E+08
25315,-25.713,-1.90E-11,-41.282,3.01E+08
25316,-28.874,-2.1242,-43.41,9.71E+07
25317,-28.59,-2.3203,-39.945,1.50E+08
25318,-26.898,-1.9983,-42.128,1.79E+08
25319,-30.794,-2.2169,-41.069,1.08E+08
25320,-29.299,-2.1963,-18.607,1.22E+08
25321,-33.68,-2.3262,-20.205,1.03E+08
25322,-30.222,-1.751,-21.017,1.20E+08
25323,-31.842,-1.6134,-18.342,9.88E+07
25324,-32.443,-1.8197,-22.479,1.15E+08
25325,-27.332,-2.02E-11,35.947,2.04E+08
25326,-30.94,-2.29E-11,33.789,2.06E+08
25327,-28.464,-2.1165,35.262,1.80E+08
25328,-28.981,-2.0802,37.119,1.64E+08
25329,-31.147,-2.3597,35.35,1.59E+08
25330,-31.12,-1.9998,38.06,1.45E+08
25331,-27.477,-2.03E-11,26.09,2.06E+08
25332,-26.492,-1.96E-11,23.734,2.05E+08
25333,-24.09,-1.78E-11,27.193,2.09E+08
25334,-23.791,-2.1963,24.371,1.89E+08
25335,-26.072,-1.5933,24.776,1.93E+08
25336,-24.185,-1.4342,26.59,2.01E+08
25337,-26.28,-1.8836,27.193,2.00E+08
25338,-47.899,-3.54E-11,-52.027,3.06E+06
25339,-45.077,-3.33E-11,-49.706,3.60E+06
25340,-48.863,-3.61E-11,-50.371,3.00E+06
25341,-47.9,-1.9118,-50.431,3.79E+06
25342,-47.445,-2.1022,-48.404,4.03E+06
25343,-46.101,-1.559,-50.137,3.95E+06
25344,-32.821,-2.43E-11,58.45,1.83E+08
25345,-33.393,-2.47E-11,55.493,1.92E+08
25346,-32.257,-2.1094,55.249,1.33E+08
25347,-30.109,-2.0371,57.355,1.32E+08
25348,-31.713,-1.6104,59.211,1.38E+08
25349,-32.615,-1.8239,57.056,1.39E+08
25350,-30.446,-1.6895,55.044,1.50E+08
25351,-47.575,-3.52E-11,46.209,1.71E+08
25352,-45.05,-3.33E-11,41.295,1.90E+08
25353,-44.592,-3.30E-11,46.018,1.79E+08
25354,-43.995,-3.25E-11,42.821,1.87E+08
25355,-46.878,-1.263,41.704,1.43E+08
25356,-44.963,-1.68,44.613,1.33E+08
25357,-47.925,-1.4735,44.014,1.33E+08
25358,-45.497,-1.6201,46.279,1.33E+08
25359,34.741,2.57E-11,10.762,8.80E+07
25360,35.172,2.60E-11,15.722,1.75E+08
25361,32.336,-2.1963,11.936,9.75E+07
25362,33.734,-1.5084,13.905,1.40E+08
25363,36.079,-1.6585,14.626,1.35E+08
25364,34.505,-2.7173,11.425,9.30E+07
25365,36.15,-2.1192,12.355,1.07E+08
25366,18.298,1.35E-11,-33.792,2.26E+08
25367,13.863,1.02E-11,-33.789,1.78E+08
25368,17.089,1.26E-11,-31.593,1.91E+08
25369,14.617,-1.5104,-32.793,1.60E+08
25370,16.494,-1.7477,-32.47,1.76E+08
25371,15.691,-1.8811,-34.688,1.80E+08
25372,-49.599,-3.67E-11,51.035,1.49E+08
25373,-47.745,-3.53E-11,54.388,1.40E+08
25374,-51.436,-3.80E-11,52.18,1.40E+08
25375,-50.961,-1.8892,51.257,9.91E+07
25376,-48.3,-1.9639,53.412,1.02E+08
25377,-50.482,-2.1989,53.732,9.52E+07
25378,-58.443,-4.32E-11,-43.629,2.39E+06
25379,-62.028,-1.4677,-42.937,3.52E+06
25380,-59.642,-1.7813,-43.162,3.26E+06
25381,-60.567,-1.9753,-40.727,4.57E+06
25382,-58.835,-0.9783,-42.049,3.13E+06
25383,-36.601,-2.71E-11,61.261,1.57E+08
25384,-40.241,-2.97E-11,60.253,1.45E+08
25385,-37.198,-2.75E-11,63.298,1.46E+08
25386,-37.785,-1.9832,61.278,1.07E+08
25387,-37.165,-1.6668,63.965,1.09E+08
25388,-38.896,-3.3621,63.066,6.86E+07
25389,-40.372,-2.3497,61.118,9.90E+07
25390,-43.419,-3.21E-11,54.556,1.54E+08
25391,-41.504,-3.07E-11,56.079,1.55E+08
25392,-42.291,-3.13E-11,51.012,1.72E+08
25393,-38.436,-2.84E-11,54.13,1.76E+08
25394,-39.874,-1.9956,54.667,1.18E+08
25395,-42.261,-1.7122,54.816,1.24E+08
25396,-38.963,-1.6808,52.386,1.28E+08
25397,-41.296,-2.0766,52.594,1.15E+08
25398,-22.901,-1.69E-11,36.644,2.50E+08
25399,-18.306,-1.35E-11,38.606,3.71E+08
25400,-19.416,-1.9089,37.316,2.96E+08
25401,-22.159,-1.895,37.895,2.54E+08
25402,-22.684,-2.1963,-25.816,1.68E+08
25403,-27.508,-2.3637,-27.607,1.84E+08
25404,-25.311,-2.5572,-26.05,1.85E+08
25405,-23.389,-2.5282,-27.863,2.07E+08
25406,-26.856,-1.751,-24.58,1.71E+08
25407,-25.369,-1.9009,-28.76,2.13E+08
25408,-45.221,-3.34E-11,-30.855,3.24E+07
25409,-45.584,-1.6972,-25.916,3.32E+07
25410,-44.662,-2.0192,-30.091,3.32E+07
25411,-46.797,-1.5905,-30.378,2.39E+07
25412,-47.456,-1.352,-27.389,2.29E+07
25413,-45.078,-2.2124,-28.136,3.47E+07
25414,-46.234,-3.42E-11,-34.664,2.26E+07
25415,-44.109,-2.0192,-32.491,3.23E+07
25416,-44.886,-2.296,-34.73,2.34E+07
25417,-42.836,-2.0297,-34.336,3.34E+07
25418,-46.243,-1.5905,-32.777,2.26E+07
25419,-50.037,-3.70E-11,-35.783,8.82E+06
25420,-54.478,-2.2882,-35.915,3.95E+06
25421,-52.475,-1.7212,-34.203,4.10E+06
25422,-51.313,-2.2913,-36.354,3.55E+06
25423,-50.047,-1.5905,-33.896,8.80E+06
25424,-54.611,-1.1934,-34.361,5.92E+06
25425,-14.924,-1.10E-11,-33.333,2.29E+08
25426,-10.11,-7.47E-12,-33.985,1.03E+08
25427,-12.038,-2.523,-31.777,1.11E+08
25428,-14.085,-2.8866,-33.425,1.61E+08
25429,-11.309,-2.0854,-33.729,1.06E+08
25430,-13.354,-1.8677,-35.246,1.56E+08
25431,-14.89,-1.5021,-32.213,1.78E+08
25432,-16.518,-2.8866,-33.034,2.30E+08
25433,-15.788,-1.8677,-34.856,2.24E+08
25434,-18.286,-1.7832,-33.822,2.97E+08
25435,-17.323,-1.5021,-31.822,2.49E+08
25436,-29.288,-2.17E-11,19.561,2.14E+08
25437,-31.769,-2.35E-11,14.753,2.23E+08
25438,-29.548,-2.1963,16.312,1.66E+08
25439,-32.999,-1.1166,14.823,2.50E+08
25440,-33.325,-1.3787,17.173,2.47E+08
25441,-31.222,-3.8464,17.388,1.79E+08
25442,-30.47,-2.0815,18.902,1.96E+08
25443,-31.672,-2.6095,15.323,1.88E+08
25444,-47.739,-3.53E-11,-56.154,2.71E+06
25445,-47.878,-1.7714,-57.412,2.90E+06
25446,-47.285,-1.8375,-59.576,2.89E+06
25447,-45.645,-1.5066,-57.626,3.97E+06
25448,-35.023,-2.59E-11,57.452,1.76E+08
25449,-35.048,-2.59E-11,62.446,1.57E+08
25450,-35.635,-1.9832,60.426,1.17E+08
25451,-33.344,-1.6104,61.17,1.24E+08
25452,-34.245,-1.8239,59.015,1.24E+08
25453,-46.288,-3.42E-11,48.45,1.68E+08
25454,-51.108,-3.78E-11,49.786,1.51E+08
25455,-50.632,-1.8892,48.863,1.10E+08
25456,-47.972,-1.9639,51.017,1.13E+08
25457,-49.621,-1.4735,46.446,1.22E+08
25458,-47.193,-1.6201,48.711,1.22E+08
25459,-42.916,-3.17E-11,36.804,2.10E+08
25460,-43.167,-3.19E-11,40.34,1.96E+08
25461,-43.885,-1.2764,36.709,1.63E+08
25462,-46.049,-1.263,39.223,1.51E+08
25463,-42.736,-1.8896,38.963,1.39E+08
25464,-45.447,-3.36E-11,37.483,1.96E+08
25465,-46.452,-2.296,-36.14,1.50E+07
25466,-49.076,-2.2913,-36.645,8.21E+06
25467,-47.81,-1.5905,-34.188,1.38E+07
25468,-47.096,-1.0423,-37.8,1.21E+07
25469,-28.577,-2.11E-11,24.139,2.08E+08
25470,-30.867,-2.28E-11,28.938,2.15E+08
25471,-28.158,-1.5933,25.181,1.95E+08
25472,-30.841,-2.1135,27.517,1.99E+08
25473,-28.365,-1.8836,27.598,2.04E+08
25474,-31.88,-2.1313,25.488,2.07E+08
25475,-29.615,-2.9031,26.126,1.99E+08
25476,34.93,2.58E-11,-20.591,1.91E+08
25477,35.192,-2.5073,-20.986,1.79E+08
25478,35.389,-2.674,-23.37,1.81E+08
25479,32.735,-1.9828,-24.216,1.72E+08
25480,33.698,-2.0945,-21.917,1.68E+08
25481,36.627,-1.3482,-20.751,2.07E+08
25482,36.153,-1.0868,-24.868,1.99E+08
25483,36.712,-1.402,-23.04,2.05E+08
25484,35.093,2.59E-11,-8.6182,1.22E+08
25485,32.707,-2.1963,-9.4307,7.98E+07
25486,33.553,-1.9583,-11.174,9.93E+07
25487,35.447,-1.5712,-8.4474,1.22E+08
25488,35.671,-1.7532,-11.537,1.44E+08
25489,35.716,-2.2077,-10.386,1.37E+08
25490,36.333,-1.0272,-9.9546,1.57E+08
25491,-35.034,-2.59E-11,-44.486,3.67E+07
25492,-37.512,-2.77E-11,-43.185,3.76E+07
25493,-33.785,-2.3151,-43.445,4.31E+07
25494,-31.34,-2.1242,-43.469,5.65E+07
25495,-33.26,-2.2169,-41.128,6.93E+07
25496,-35.799,-1.8124,-42.284,4.42E+07
25497,-35.91,-2.2189,-40.222,5.08E+07
25498,-33.996,-2.0997,-39.51,7.06E+07
25499,26.59,1.97E-11,23.289,4.28E+08
25500,27.26,-2.1963,20.294,3.12E+08
25501,29.636,-2.3164,20.021,2.75E+08
25502,31.827,-1.811,20.722,2.69E+08
25503,28.597,-1.4455,22.319,3.59E+08
25504,-39.77,-2.94E-11,41.945,1.90E+08
25505,-38.828,-1.8647,42.548,1.33E+08
25506,-36.08,-2.2999,42.494,1.16E+08
25507,-34.98,-1.9998,40.974,1.25E+08
25508,-39.339,-1.8896,40.568,1.35E+08
25509,-37.002,-2.5639,40.286,1.15E+08
25510,22.629,1.67E-11,-34.171,2.37E+08
25511,19.188,1.42E-11,-32.053,2.11E+08
25512,18.593,-1.7477,-32.931,1.96E+08
25513,20.653,-1.8187,-31.704,1.97E+08
25514,17.79,-1.8811,-35.149,2.00E+08
25515,20.764,-2.2009,-34.374,2.12E+08
25516,33.171,-2.1963,7.2805,5.85E+07
25517,36.468,-0.72366,7.2062,5.17E+07
25518,34.691,-2.7173,9.1315,5.35E+07
25519,35.243,-0.598,6.2934,5.99E+07
25520,36.336,-2.1192,10.062,6.08E+07
25521,35.791,-1.8397,7.9929,4.45E+07
25522,-32.481,-2.1963,-8.9507,1.53E+07
25523,-35.909,-1.3733,-10.018,5.01E+07
25524,-33.894,-1.7271,-10.665,5.13E+07
25525,-35.048,-1.3556,-7.9892,3.83E+07
25526,-5.336,-3.94E-12,-34.526,3.54E+07
25527,-7.1166,-2.3921,-32.789,5.06E+07
25528,-8.928,-2.0854,-33.99,5.33E+07
25529,-6.3873,-2.092,-34.768,3.85E+07
25530,-8.4817,-2.3104,-36.082,6.35E+07
25531,9.1345,6.75E-12,-34.526,1.16E+08
25532,9.9411,-2.3071,-32.568,1.03E+08
25533,9.4085,-2.1013,-35.373,1.16E+08
25534,12.281,-1.5104,-33.251,1.33E+08
25535,13.355,-1.8811,-35.146,1.54E+08
25536,11.184,-1.7235,-35.587,1.35E+08
25537,11.175,-2.9326,-34.128,1.22E+08
25538,-26.087,-2.1165,35.012,2.00E+08
25539,-26.604,-2.0802,36.869,1.85E+08
25540,-24.212,-1.895,36.949,2.18E+08
25541,-24.424,-1.696,33.737,2.14E+08
25542,-43.647,-3.23E-11,56.87,1.43E+08
25543,-46.118,-1.9639,54.37,1.04E+08
25544,-44.405,-1.7122,55.606,1.12E+08
25545,-46.901,-2.0434,56.656,9.90E+07
25546,30.467,2.25E-11,-30.657,1.86E+08
25547,32.147,-2.4008,-33.778,1.72E+08
25548,34.157,-2.2343,-30.684,1.75E+08
25549,34.478,-2.1913,-33.271,1.68E+08
25550,32.184,-2.622,-31.313,1.66E+08
25551,35.316,-1.0868,-29.441,1.88E+08
25552,35.695,-0.82727,-33.236,1.70E+08
25553,33.279,-2.8236,-32.353,1.63E+08
25554,35.593,-1.2961,-31.214,1.78E+08
25555,-35.311,-2.61E-11,-48.478,6.58E+06
25556,-36.526,-2.70E-11,-50.928,8.81E+06
25557,-32.767,-2.6098,-50.428,2.22E+07
25558,-35.96,-1.9253,-50.279,8.51E+06
25559,-34.062,-2.3151,-47.437,1.23E+07
25560,-39.276,-1.9832,59.418,1.05E+08
25561,-40.102,-1.9956,56.981,1.06E+08
25562,-42.489,-1.7122,57.13,1.12E+08
25563,-41.862,-2.3497,59.258,9.78E+07
25564,32.689,2.42E-11,-18.136,1.54E+08
25565,33.112,-1.5069,-17.885,1.45E+08
25566,34.917,-2.5073,-18.998,1.68E+08
25567,35.719,-1.7532,-15.648,1.75E+08
25568,33.423,-2.0945,-19.929,1.57E+08
25569,36.352,-1.3482,-18.763,1.97E+08
25570,-19.132,-1.41E-11,44.944,4.34E+08
25571,-24.361,-1.80E-11,44.73,2.67E+08
25572,-22.112,-1.4192,48.014,2.59E+08
25573,-20.043,-1.2914,46.855,3.95E+08
25574,-20.793,-2.0614,44.239,3.08E+08
25575,-22.861,-1.872,44.248,2.65E+08
25576,-22.111,-2.3837,45.885,2.73E+08
25577,27.353,-1.0857,-57.124,9.85E+07
25578,30.733,-2.5256,-55.272,6.99E+07
25579,28.221,-2.2157,-54.749,9.99E+07
25580,31.295,-1.1107,-56.772,5.92E+07
25581,29.301,-1.9685,-56.899,6.86E+07
25582,-42.579,-1.2764,34.698,1.75E+08
25583,-39.848,-1.6988,34.791,1.66E+08
25584,35.343,2.61E-11,-4.9495,1.17E+08
25585,35.221,2.60E-11,-0.95177,1.05E+08
25586,33.424,-2.1963,-3.3572,8.27E+07
25587,35.697,-1.5712,-4.7786,1.14E+08
25588,36.34,-0.75966,-2.5886,1.29E+08
25589,-23.887,-1.9983,-41.72,3.34E+08
25590,-22.15,-1.1146,-41.228,4.50E+08
25591,-22.859,-1.5575,-39.475,3.98E+08
25592,-21.777,-0.69805,-41.519,5.62E+08
25593,-17.033,-1.26E-11,30.769,2.45E+08
25594,-20.863,-1.54E-11,29.333,2.21E+08
25595,-18.674,-2.1963,28.069,1.96E+08
25596,-20.958,-1.4342,28.73,2.13E+08
25597,-18.868,-1.552,30.493,2.32E+08
25598,-37.626,-2.78E-11,-49.613,4.35E+06
25599,-38.89,-2.87E-11,-45.863,1.04E+07
25600,-39.714,-2.94E-11,-48.235,4.93E+06
25601,-37.061,-1.9253,-48.964,4.43E+06
25602,-35.163,-2.3151,-46.122,1.62E+07
25603,-37.177,-1.8124,-44.961,1.66E+07
25604,-37.94,-2.3522,-46.688,7.95E+06
25605,-40.929,-3.03E-11,-50.685,4.41E+06
25606,-38.072,-2.75,-53.899,1.12E+07
25607,-38.275,-1.9253,-51.414,7.64E+06
25608,-40.146,-1.6881,-52.683,7.09E+06
25609,-16.024,-1.18E-11,42.303,4.99E+08
25610,-17.195,-1.2914,46.896,4.86E+08
25611,-14.726,-1.758,44.383,4.18E+08
25612,-17.945,-2.0614,44.279,4.24E+08
25613,-15.932,-2.6832,45.806,4.52E+08
25614,-16.09,-2.6534,43.052,4.05E+08
25615,-15.059,-1.0277,46.036,5.75E+08
25616,26.132,1.93E-11,-31.838,2.08E+08
25617,25.664,-2.0654,-33.258,1.97E+08
25618,22.995,-2.2009,-34.292,2.02E+08
25619,25.832,-1.6245,-35.534,2.04E+08
25620,-57.586,-1.7813,-44.597,3.02E+06
25621,-55.908,-1.8785,-46.216,3.02E+06
25622,-55.253,-2.2485,-43.36,3.51E+06
25623,-53.893,-1.7837,-45.12,3.24E+06
25624,-56.779,-0.9783,-43.484,2.80E+06
25625,-49.624,-3.67E-11,-52.294,2.59E+06
25626,-48.662,-1.9118,-52.354,3.42E+06
25627,-48.8,-1.7714,-55.207,3.04E+06
25628,-46.566,-1.5066,-55.422,3.48E+06
25629,-50.564,-1.4851,-52.893,2.65E+06
25630,-46.863,-1.559,-52.06,3.64E+06
25631,-46.824,-2.4592,-53.697,4.00E+06
25632,-42.193,-3.12E-11,-46.934,6.99E+06
25633,-42.553,-2.4626,-45.228,8.20E+06
25634,-39.655,-1.8124,-43.661,1.80E+07
25635,-40.418,-2.3522,-45.387,9.54E+06
25636,-41.981,-1.54,-42.963,1.35E+07
25637,26.182,-1.758,-48.576,1.74E+08
25638,28.782,-2.3179,-49.44,1.34E+08
25639,28.708,-2.0963,-47.198,1.48E+08
25640,-14.465,-1.758,41.702,3.99E+08
25641,-16.873,-1.9089,38.332,3.78E+08
25642,-14.697,-1.4913,39.115,3.99E+08
25643,-15.829,-2.6534,40.372,3.89E+08
25644,22.196,1.64E-11,27.184,5.81E+08
25645,23.149,-2.1963,24.223,4.32E+08
25646,22.813,-1.7388,26.807,5.43E+08
25647,26.116,-1.4455,24.42,4.48E+08
25648,23.713,-3.1806,25.816,4.69E+08
25649,20.186,1.49E-11,-28.321,1.69E+08
25650,17.633,-2.7454,-28.392,1.37E+08
25651,17.384,-1.7477,-30.732,1.60E+08
25652,19.444,-1.8187,-29.504,1.61E+08
25653,-40.243,-2.1303,-23.479,7.50E+07
25654,-41.337,-2.314,-20.611,6.89E+07
25655,-38.044,-2.3262,-20.95,8.94E+07
25656,-40.076,-1.8284,-18.429,7.52E+07
25657,-14.664,-2.1963,30.125,1.77E+08
25658,-16.964,-1.552,31.297,2.46E+08
25659,-14.171,-1.4917,32.715,2.75E+08
25660,24.898,1.84E-11,-28.188,1.77E+08
25661,21.622,-2.3675,-25.531,1.40E+08
25662,21.65,-1.8187,-27.972,1.56E+08
25663,23.53,-1.6154,-26.41,1.50E+08
25664,-26.521,-2.1963,20.592,1.84E+08
25665,-28.775,-2.0815,21.125,1.88E+08
25666,-27.173,-1.5933,22.826,1.94E+08
25667,-27.366,-2.2667,43.548,1.54E+08
25668,-27.119,-2.0349,46.834,1.62E+08
25669,-25.242,-1.872,44.075,1.95E+08
25670,-29.007,-1.8075,44.82,1.52E+08
25671,-0.52202,-3.86E-13,-34.898,2.65E+07
25672,-3.9946,-2.092,-35.047,2.65E+07
25673,-0.91241,-1.7461,-36.186,3.57E+07
25674,-3.0642,-2.0105,-37.118,4.63E+07
25675,26.035,-1.6154,-27.809,1.63E+08
25676,26.935,-2.0654,-31.007,1.78E+08
25677,29.12,-2.622,-30.243,1.69E+08
25678,28.833,-1.9828,-27.72,1.68E+08
25679,26.787,-2.5047,-29.004,1.64E+08
25680,4.3206,3.19E-12,-34.898,5.63E+07
25681,7.5484,-2.3071,-32.847,7.03E+07
25682,7.0158,-2.1013,-35.652,8.26E+07
25683,5.4864,-1.8689,-34.592,6.79E+07
25684,-43.377,-2.4626,-47.6,4.69E+06
25685,-40.363,-1.9253,-50.036,4.68E+06
25686,-42.235,-1.6881,-51.305,4.34E+06
25687,-41.242,-2.3522,-47.759,5.09E+06
25688,-44.041,-1.559,-49.738,4.02E+06
25689,-42.298,-2.7891,-49.625,4.29E+06
25690,35.982,-1.5712,-6.6836,1.25E+08
25691,36.868,-1.0272,-8.1908,1.57E+08
25692,-31.336,-2.1963,11.493,1.47E+08
25693,-33.634,-1.0733,9.8988,2.24E+08
25694,-33.785,-1.1166,12.238,2.56E+08
25695,-32.458,-2.6095,12.738,1.92E+08
25696,-42.215,-2.1378,47.877,1.18E+08
25697,-43.677,-1.68,46.854,1.30E+08
25698,-42.311,-2.0766,49.84,1.20E+08
25699,-44.21,-1.6201,48.52,1.30E+08
25700,-22.884,-1.4342,28.099,2.05E+08
25701,-20.794,-1.552,29.862,2.22E+08
25702,-23.341,-1.696,30.239,2.16E+08
25703,31.145,-1.5069,-17.418,1.19E+08
25704,29.993,-1.2116,-18.454,1.19E+08
25705,-44.994,-1.263,40.749,1.48E+08
25706,-41.17,-1.8647,42.469,1.34E+08
25707,-43.08,-1.68,43.658,1.38E+08
25708,-41.681,-1.8896,40.489,1.36E+08
25709,-52.47,-1.8892,50.008,1.01E+08
25710,-54.214,-2.0794,52.134,9.62E+07
25711,-51.991,-2.1989,52.483,9.68E+07
25712,19.347,-2.1963,27.576,4.73E+08
25713,18.38,-2.0185,30.44,5.83E+08
25714,20.9,-1.7388,28.602,6.06E+08
25715,33.68,-2.1963,1.1833,1.01E+08
25716,36.503,-0.75966,-0.49589,1.17E+08
25717,35.471,-0.598,2.6297,1.12E+08
25718,34.351,-1.5084,16.572,1.76E+08
25719,35.185,-1.811,19.323,2.16E+08
25720,36.696,-1.6585,17.293,1.82E+08
25721,-34.46,-2.1094,54.251,1.27E+08
25722,-37.034,-1.9956,55.032,1.27E+08
25723,-36.124,-1.6808,52.751,1.37E+08
25724,-34.818,-1.8239,56.059,1.33E+08
25725,-36.233,-1.9832,62.464,1.06E+08
25726,-33.941,-1.6104,63.208,1.13E+08
25727,-35.612,-1.6668,65.15,1.08E+08
25728,-32.145,-2.1135,29.96,1.95E+08
25729,-29.695,-2.1165,32.854,1.88E+08
25730,-32.378,-2.3597,32.942,1.71E+08
25731,-33.944,-1.8214,30.864,1.89E+08
25732,-29.67,-1.8836,30.042,1.96E+08
25733,-30.908,-2.7463,31.166,1.90E+08
25734,1.5089,-1.7461,-36.28,4.29E+07
25735,3.0651,-1.8689,-34.686,4.31E+07
25736,-49.626,-1.9118,-50.697,3.42E+06
25737,-51.528,-1.4851,-51.237,2.73E+06
25738,-4.5411,-17.687,62.63,2.49E+07
25739,-5.5047,-18.495,61.655,2.16E+07
25740,-4.2379,-16.256,62.519,3.05E+07
25741,-6.8174,-15.896,62.726,1.16E+07
25742,-4.1097,-16.956,61.318,2.44E+07
25743,-4.8741,-15.935,63.432,3.15E+07
25744,-4.2746,-16.248,63.221,3.51E+07
25745,-5.3547,-15.44,61.701,2.44E+07
25746,4.2012,-17.545,62.792,8.69E+06
25747,5.9124,-18.586,61.539,2.32E+07
25748,4.7424,-16.409,61.808,1.28E+07
25749,4.1489,-15.784,63.191,2.17E+07
25750,6.6741,-15.193,63.419,1.78E+07
25751,4.8361,-15.81,63.521,1.57E+07
25752,6.5184,-16.51,62.063,2.13E+07
25753,5.2783,-19.139,60.814,2.47E+07
25754,1.6716,-18.666,61.438,6.82E+06
25755,3.2237,-19.866,59.784,3.47E+07
25756,4.1083,-17.011,61.122,1.49E+07
25757,3.5149,-16.386,62.505,1.92E+07
25758,2.4211,-17.005,61.697,2.00E+07
25759,2.4474,-17.52,59.809,2.28E+07
25760,-4.9145,-19.064,60.915,1.97E+07
25761,-2.0875,-18.738,61.344,1.66E+07
25762,-2.9765,-19.436,60.403,2.62E+07
25763,-3.6477,-16.866,61.813,2.81E+07
25764,-3.5195,-17.567,60.612,2.34E+07
25765,-3.6845,-16.859,62.516,3.18E+07
25766,8.42E-02,-24.644,47.609,1.72E+08
25767,4.0622,-24.603,47.865,1.55E+08
25768,3.3013,-24.157,50.061,1.44E+08
25769,0.78117,-24.121,50.208,1.48E+08
25770,3.0939,-22.715,48.471,1.21E+08
25771,1.9074,-23.17,46.39,1.45E+08
25772,0.63586,-22.05,48.247,1.20E+08
25773,-3.8587,-24.698,47.248,1.59E+08
25774,-4.3438,-24.369,49.121,1.42E+08
25775,-3.0532,-24.16,50.05,1.43E+08
25776,-0.96574,-24.164,50.033,1.49E+08
25777,-3.4075,-22.657,48.116,1.28E+08
25778,-2.53,-23.332,46.148,1.52E+08
25779,0.16054,-23.198,46.212,1.48E+08
25780,-1.1111,-22.078,48.068,1.22E+08
25781,-6.5399,-24.406,48.941,1.28E+08
25782,-7.0948,-23.097,46.187,1.23E+08
25783,-5.6036,-22.684,47.933,1.15E+08
25784,-4.7261,-23.358,45.966,1.38E+08
25785,-8.0017,-23.839,48.307,1.01E+08
25786,5.5323,-24.139,50.136,1.29E+08
25787,7.19,-22.955,46.839,9.07E+07
25788,7.9488,-23.514,49.821,9.46E+07
25789,8.1951,-23.777,48.346,8.99E+07
25790,5.325,-22.702,48.548,1.07E+08
25791,4.1385,-23.157,46.467,1.29E+08
25792,8.3224,-23.828,46.267,8.49E+07
25793,-5.7343,-23.709,51.707,1.12E+08
25794,-6.0887,-22.307,49.796,1.01E+08
25795,-7.4682,-22.182,51.567,8.53E+07
25796,-8.4868,-23.462,50.17,8.55E+07
25797,3.8258,-22.559,54.853,9.25E+07
25798,2.2513,-23.477,52.436,1.23E+08
25799,7.1879,-22.981,51.996,8.54E+07
25800,4.564,-22.17,50.723,9.86E+07
25801,5.4448,-21.253,53.094,7.84E+07
25802,3.3922,-21.308,52.548,8.42E+07
25803,-5.2562,-20.84,58.241,4.99E+07
25804,-4.539,-22.665,54.603,9.05E+07
25805,-3.3182,-21.156,57.692,5.49E+07
25806,-2.4516,-22.672,54.587,9.73E+07
25807,-6.2729,-21.084,54.439,6.42E+07
25808,-5.9601,-19.568,56.698,4.97E+07
25809,-3.5577,-20.344,55.39,6.01E+07
25810,-3.8612,-19.31,57.922,3.23E+07
25811,-3.94,-20.149,59.356,3.65E+07
25812,-6.582,-18.58,58.372,3.75E+07
25813,-7.1908,-17.262,61.005,3.02E+07
25814,-4.4831,-18.323,59.597,2.14E+07
25815,-5.7281,-16.807,59.98,2.07E+07
25816,4.9348,-20.739,58.41,5.61E+07
25817,5.8195,-17.977,59.813,2.70E+07
25818,7.3017,-18.596,58.216,5.14E+07
25819,7.5955,-18.078,60.068,4.60E+07
25820,1.3281,-20.328,59.077,3.76E+07
25821,-1.113,-19.851,59.806,2.60E+07
25822,-1.7842,-17.311,61.238,2.31E+07
25823,0.52553,-17.524,61.03,2.03E+07
25824,-1.656,-18.011,60.037,2.11E+07
25825,0.55183,-18.04,59.142,2.60E+07
25826,-0.84124,-16.82,61.629,2.89E+07
25827,-2.3562,-23.424,52.596,1.20E+08
25828,-4.798,-22.031,50.706,1.01E+08
25829,-6.1775,-21.906,52.478,8.49E+07
25830,-3.4624,-21.166,53.429,7.82E+07
25831,-2.5015,-21.452,50.659,9.64E+07
25832,0.43908,-20.937,58.075,5.44E+07
25833,1.3057,-22.499,54.992,9.60E+07
25834,3.7648,-18.625,58.732,3.09E+07
25835,5.247,-19.244,57.135,5.18E+07
25836,0.19955,-20.139,55.78,5.95E+07
25837,4.4992,-20.173,55.607,5.67E+07
25838,2.4466,-20.227,55.06,6.24E+07
25839,2.1039,-19.134,57.418,3.92E+07
25840,-1.1354,-22.139,55.786,8.32E+07
25841,-2.2415,-19.701,56.533,4.81E+07
25842,-2.545,-18.668,59.066,2.48E+07
25843,-0.33719,-18.696,58.171,3.12E+07
25844,-1.3749,-21.172,53.412,8.49E+07
25845,2.044,-22.122,50.867,1.02E+08
25846,0.87211,-21.26,52.693,8.77E+07
25847,-0.41413,-21.457,50.643,1.03E+08
25848,-11.734,43.164,76.173,7.53E+07
25849,-9.8261,47.056,74.579,5.91E+07
25850,-10.827,47.357,73.058,7.02E+07
25851,-10.801,44.685,74.372,7.76E+07
25852,-12.299,28.924,56.388,6.83E+08
25853,-9.8369,28.258,52.263,5.10E+08
25854,-10.766,30.364,53.511,5.36E+08
25855,-10.316,28.057,56.352,6.51E+08
25856,-10.813,29.829,54.792,6.15E+08
25857,-9.3175,27.562,54.349,5.22E+08
25858,-11.856,25.251,66.844,5.80E+08
25859,-10.369,26.34,60.872,6.72E+08
25860,-9.6695,25.035,62.799,5.69E+08
25861,-10.8,26.406,62.793,7.22E+08
25862,-11.063,25.695,64.069,6.30E+08
25863,-11.926,30.205,73.993,2.88E+08
25864,-10.445,27.913,69.357,4.52E+08
25865,-10.935,29.214,71.102,3.46E+08
25866,-8.8296,27.17,70.774,3.20E+08
25867,-10.961,26.746,68.087,5.12E+08
25868,-11.539,36.921,77.038,1.25E+08
25869,-12.317,34.938,74.271,1.88E+08
25870,-9.871,35.809,76.5,1.19E+08
25871,-10.35,35.588,74.469,1.32E+08
25872,-11.001,33.043,73.923,2.00E+08
25873,-9.0299,33.914,75.509,1.28E+08
25874,-12.226,40.465,74.647,1.11E+08
25875,-9.78,38.422,76.903,1.01E+08
25876,-10.259,38.201,74.872,1.18E+08
25877,-10.746,41.194,75.659,8.57E+07
25878,-11.529,49.215,104.22,3.24E+07
25879,-12.252,50.821,107,3.16E+07
25880,-9.9815,50.109,105.01,2.79E+07
25881,-10.658,52.067,106.25,2.80E+07
25882,-10.093,51.949,104.35,2.95E+07
25883,-11.248,49.866,105.74,3.00E+07
25884,-11.673,44.703,104.06,3.09E+07
25885,-12.277,46.697,105.93,2.81E+07
25886,-10.707,45.437,105.17,2.64E+07
25887,-10.006,47.992,104.54,2.74E+07
25888,-11.273,47.75,105.27,3.01E+07
25889,-10.356,46.872,103.36,2.94E+07
25890,-11.847,40.044,105.48,2.60E+07
25891,-12.401,42.025,107.01,2.32E+07
25892,-10.832,43.112,105.5,2.24E+07
25893,-12.446,39.76,108.12,2.23E+07
25894,-12.446,37.66,110.15,2.03E+07
25895,-10.876,40.847,106.61,2.00E+07
25896,-10.465,35.596,109.44,1.66E+07
25897,-9.8707,37.947,106.33,1.80E+07
25898,-9.5943,37.735,108.09,1.63E+07
25899,7.0901,20.083,77.974,2.73E+08
25900,6.3435,20.719,79.603,2.46E+08
25901,7.5431,21.565,79.479,2.73E+08
25902,5.751,19.986,78.759,2.34E+08
25903,-4.7711,25.146,86.251,3.75E+07
25904,-2.9325,24.026,84.673,1.46E+07
25905,-6.1938,24.517,82.098,8.61E+07
25906,-5.8397,25.747,84.221,6.50E+07
25907,-5.7339,22.63,81.637,7.93E+07
25908,-4.187,23.588,82.339,4.07E+07
25909,-3.2268,25.959,82.955,2.55E+07
25910,-4.6204,27.663,90.902,1.74E+07
25911,-2.711,25.692,87.108,1.18E+07
25912,-2.4839,26.859,89.191,1.20E+07
25913,-5.6183,27.372,86.679,5.07E+07
25914,-6.3982,29.03,89.076,4.58E+07
25915,-2.8119,29.089,89.911,8.73E+06
25916,-3.076,27.917,87.641,1.21E+07
25917,-2.4215,28.841,94.124,2.13E+07
25918,-2.5546,27.839,91.319,2.00E+07
25919,-6.469,29.958,91.224,3.89E+07
25920,-6.3862,30.074,95.209,1.98E+07
25921,-5.7634,30.971,93.29,2.19E+07
25922,-3.4793,31.46,94.699,5.12E+06
25923,-2.8827,30.017,92.06,8.77E+06
25924,3.8476,26.79,89.058,1.11E+08
25925,2.0232,28.685,93.621,6.84E+07
25926,1.8901,27.633,90.834,7.13E+07
25927,3.66,29.507,89.69,8.32E+07
25928,5.9548,29.594,91.569,1.06E+08
25929,5.7821,30.123,94.493,8.79E+07
25930,3.5216,30.743,93.339,7.27E+07
25931,1.562,29.838,91.565,5.85E+07
25932,5.7949,28.273,89.354,1.26E+08
25933,4.0661,30.774,90.952,8.07E+07
25934,4.4042,24.209,84.915,1.59E+08
25935,1.3123,24.868,85.839,8.48E+07
25936,1.5395,26.138,87.86,8.62E+07
25937,3.2891,25.418,83.727,1.15E+08
25938,5.3765,25.698,84.436,1.61E+08
25939,3.3095,27.984,86.736,1.02E+08
25940,0.9473,27.143,86.341,7.14E+07
25941,5.4443,26.75,86.4,1.45E+08
25942,3.4323,27.186,84.911,1.08E+08
25943,4.1963,24.49,82.478,1.47E+08
25944,6.2837,24.771,83.187,1.94E+08
25945,5.1245,23.342,82.24,1.78E+08
25946,-0.28496,28.238,92.333,4.16E+07
25947,1.3466,31.237,94.878,4.22E+07
25948,-1.2096,31.775,95.743,2.24E+07
25949,-0.613,30.333,93.103,2.83E+07
25950,-0.64524,25.926,87.496,4.24E+07
25951,1.1044,25.179,83.379,7.24E+07
25952,-3.7796,26.361,85.031,2.29E+07
25953,-1.2374,26.905,85.993,2.80E+07
25954,-2.1269,24.202,83.149,2.33E+07
25955,-0.46105,23.884,82.352,5.86E+07
25956,1.2476,26.948,84.563,6.59E+07
25957,-1.1667,26.573,83.764,3.11E+07
25958,1.3519,28.963,88.44,6.00E+07
25959,-0.74612,29.294,90.315,3.35E+07
25960,-1.0103,28.122,88.045,3.08E+07
25961,-16.978,-13.717,36.288,5.34E+08
25962,-13.901,-13.452,35.608,4.24E+08
25963,-13.468,-12.254,37.561,4.35E+08
25964,-15.745,-11.65,37.007,4.45E+08
25965,-15.078,-12.528,38.013,4.75E+08
25966,-21.161,-13.934,33.742,5.34E+08
25967,-20.03,-12.219,32.269,3.96E+08
25968,-17.553,-12.051,33.579,4.16E+08
25969,-18.227,-14.209,32.812,4.25E+08
25970,-16.114,-13.665,34.301,4.27E+08
25971,-20.41,-12.216,34.652,4.38E+08
25972,-17.957,-11.863,35.7,4.40E+08
25973,-24.739,-13.956,31.185,5.05E+08
25974,-22.01,-12.215,31.033,3.85E+08
25975,-22.014,-15.003,30.655,4.09E+08
25976,-20.207,-14.204,31.576,4.16E+08
25977,-24.714,-11.586,31.611,3.73E+08
25978,-22.39,-12.211,33.415,4.26E+08
25979,-27.834,-13.956,28.457,4.50E+08
25980,-25.659,-13.522,27.874,3.49E+08
25981,-23.627,-12.215,29.75,3.55E+08
25982,-23.631,-15.003,29.372,3.84E+08
25983,-26.331,-11.586,30.328,3.45E+08
25984,-30.63,-13.956,25.423,3.80E+08
25985,-28.471,-13.745,24.959,2.99E+08
25986,-27.135,-13.522,26.43,3.19E+08
25987,-27.807,-11.586,28.884,3.14E+08
25988,-29.701,-12.128,26.471,3.10E+08
25989,-33.346,-14.089,21.502,3.15E+08
25990,-34.567,-12.767,20.903,2.66E+08
25991,-31.209,-12.877,21.574,2.41E+08
25992,-29.79,-13.745,23.371,2.65E+08
25993,-30.923,-14.952,21.313,2.48E+08
25994,-31.02,-12.128,24.882,2.75E+08
25995,-31.981,-11.432,23.184,2.53E+08
25996,-35.904,-12.931,18.548,2.67E+08
25997,-32.546,-13.04,19.219,2.32E+08
25998,-32.26,-15.115,18.958,2.36E+08
25999,-34.027,-13.541,17.033,2.50E+08
26000,11.622,45.378,75.289,1.09E+08
26001,10.774,46.615,72.093,1.13E+08
26002,10.396,46.811,73.825,1.03E+08
26003,10.827,48.236,72.614,9.28E+07
26004,10.134,35.748,49.355,2.30E+08
26005,10.442,33.434,50.292,2.93E+08
26006,11.27,35.368,50.926,2.70E+08
26007,11.836,26.793,55.662,6.44E+08
26008,10.87,28.952,54.782,6.05E+08
26009,10.284,30.52,51.816,4.42E+08
26010,9.4588,29.15,53.094,4.64E+08
26011,10.883,30.465,53.808,5.36E+08
26012,11.112,32.455,52.45,4.21E+08
26013,11.741,40.476,76.815,1.25E+08
26014,12.3,38.058,75.314,1.84E+08
26015,10.469,39.083,76.007,1.30E+08
26016,11.115,36.417,75.556,1.80E+08
26017,11.655,27.535,71.651,4.41E+08
26018,9.9164,29.395,73.359,3.15E+08
26019,10.995,29.19,71.837,3.79E+08
26020,11.795,25.409,67.493,5.53E+08
26021,12.023,24.812,63.101,5.68E+08
26022,12.406,26.746,63.908,6.05E+08
26023,9.7486,25.399,65.478,5.21E+08
26024,10.575,25.691,63.154,6.35E+08
26025,11.198,26.205,65.581,5.95E+08
26026,11.913,25.048,60.126,5.90E+08
26027,12.308,27.581,58.651,6.55E+08
26028,12.308,26.915,60.906,6.16E+08
26029,10.851,27.044,57.81,6.22E+08
26030,9.719,24.49,57.705,5.55E+08
26031,10.477,25.861,60.152,6.51E+08
26032,10.647,44.46,74.86,1.00E+08
26033,10.615,41.624,75.539,1.17E+08
26034,11.236,42.543,74.691,1.28E+08
26035,12.389,28.26,68.722,4.62E+08
26036,9.9674,27.2,70.074,3.90E+08
26037,11.181,27.065,68.139,5.22E+08
26038,11.113,28.06,70.224,4.04E+08
26039,12.624,26.855,62.171,5.13E+08
26040,10.793,25.8,61.417,5.52E+08
26041,11.792,50.189,104.74,5.26E+07
26042,12.419,51.398,107.62,3.93E+07
26043,10.572,50.381,106.58,4.23E+07
26044,11.038,52.866,106.36,3.39E+07
26045,10.155,52.489,105.61,3.85E+07
26046,11.842,41.889,104.75,6.46E+07
26047,11.909,38.37,106.47,5.76E+07
26048,12.439,40.703,107.49,5.52E+07
26049,9.9667,41.829,105.13,5.60E+07
26050,10.2,39.482,106.04,5.56E+07
26051,10.796,41.691,106.93,5.50E+07
26052,11.777,45.916,104.08,6.46E+07
26053,12.373,46.878,106.18,5.48E+07
26054,9.9013,45.821,104.52,5.85E+07
26055,10.526,48.388,105.92,5.28E+07
26056,9.6064,47.474,102.75,5.63E+07
26057,8.9132,47.901,104.18,5.22E+07
26058,12.404,44.655,106.22,5.40E+07
26059,9.9315,43.598,104.55,5.71E+07
26060,10.761,43.46,106.36,5.57E+07
26061,12.47,39,108.64,5.06E+07
26062,10.171,35.399,108.08,4.00E+07
26063,10.429,35.162,109.62,3.35E+07
26064,10.707,37.244,109.92,4.24E+07
26065,10.231,37.779,107.19,5.12E+07
26066,-16.107,-20.383,-38.056,9.41E+07
26067,-15.355,-19.591,-37.285,1.23E+08
26068,-11.706,-19.292,-38.295,1.09E+08
26069,-11.871,-21.174,-35.754,1.25E+08
26070,-14.54,-20.966,-35.186,1.33E+08
26071,-13.609,-22.9,-34.665,1.22E+08
26072,-13.417,-19.195,-37.666,1.11E+08
26073,-14.197,-19.354,-35.231,1.30E+08
26074,-16.081,-21.575,-34.906,1.40E+08
26075,39.062,-26.495,6.1214,2.77E+08
26076,39.314,-26.72,1.1703,2.01E+08
26077,37.778,-25.867,1.267,1.74E+08
26078,37.683,-25.927,4.1246,1.86E+08
26079,39.903,-24.628,1.6075,1.47E+08
26080,39.129,-24.325,5.7607,1.79E+08
26081,39.785,-24.007,3.5102,1.58E+08
26082,37.367,-27.777,2.5298,1.79E+08
26083,37.837,-26.716,10.749,3.89E+08
26084,37.347,-25.862,6.6784,2.30E+08
26085,36.651,-25.983,9.0112,2.39E+08
26086,38.101,-24.947,10.724,2.69E+08
26087,38.793,-24.26,8.3145,2.28E+08
26088,35.111,-26.623,17.914,5.23E+08
26089,36.632,-26.686,14.401,4.57E+08
26090,34.843,-24.179,15.267,2.82E+08
26091,34.761,-26.397,14.857,3.20E+08
26092,36.914,-24.932,14.381,3.34E+08
26093,36.566,-24.2,16.964,3.36E+08
26094,33.642,-24.405,17.165,3.28E+08
26095,33.56,-26.624,16.755,3.65E+08
26096,32.168,-26.015,19.657,4.04E+08
26097,34.051,-25.199,20.756,4.62E+08
26098,35.365,-24.427,18.863,3.84E+08
26099,32.074,-26.397,21.109,4.88E+08
26100,35.82,-26.244,11.086,2.94E+08
26101,35.118,-26.673,13.275,3.16E+08
26102,37.271,-25.208,12.799,3.26E+08
26103,37.708,-26.03,-1.115,1.58E+08
26104,38.638,-25.718,-2.9738,1.58E+08
26105,39.833,-24.79,-0.77449,1.33E+08
26106,37.031,-27.033,-2.3872,1.48E+08
26107,40.056,-25.348,-2.408,1.11E+08
26108,37.297,-27.94,0.14777,1.60E+08
26109,15.798,-21.46,-36.433,1.22E+08
26110,13.295,-19.427,-37.596,1.09E+08
26111,12.771,-20.856,-35.788,1.21E+08
26112,11.891,-19.871,-37.703,1.09E+08
26113,14.175,-18.575,-36.563,1.12E+08
26114,19.741,-21.446,-34.473,1.21E+08
26115,14.922,-20.824,-34.89,1.20E+08
26116,16.817,-19.698,-33.714,1.22E+08
26117,17.499,-21.732,-33.23,1.26E+08
26118,18.738,-19.667,-35.062,1.09E+08
26119,16.325,-18.543,-35.665,1.10E+08
26120,23.24,-21.266,-32.455,1.18E+08
26121,19.303,-21.723,-32.208,1.26E+08
26122,21.02,-19.505,-31.645,1.19E+08
26123,23.046,-19.297,-32.478,1.06E+08
26124,20.542,-19.657,-34.04,1.09E+08
26125,21.038,-21.958,-31.294,1.24E+08
26126,26.314,-21.277,-30,1.17E+08
26127,22.709,-19.364,-30.631,1.15E+08
26128,24.157,-21.036,-29.271,1.19E+08
26129,24.734,-19.156,-31.464,1.03E+08
26130,22.726,-21.817,-30.28,1.20E+08
26131,29.264,-21.422,-26.901,1.26E+08
26132,25.526,-21.189,-27.843,1.23E+08
26133,26.95,-21.46,-26.484,1.22E+08
26134,28.432,-19.129,-27.976,1.10E+08
26135,26.44,-19.241,-27.043,1.20E+08
26136,26.104,-19.309,-30.037,1.05E+08
26137,32.014,-21.431,-23.546,1.36E+08
26138,28.518,-21.448,-24.795,1.29E+08
26139,30.177,-21.66,-23.021,1.27E+08
26140,32.236,-19.329,-24.025,1.21E+08
26141,30,-19.117,-26.288,1.16E+08
26142,29.5,-20.074,-23.714,1.26E+08
26143,28.871,-23.198,-23.812,1.24E+08
26144,34.272,-21.216,-20.575,1.43E+08
26145,31.387,-21.655,-21.384,1.31E+08
26146,32.775,-21.736,-18.94,1.32E+08
26147,33.446,-19.324,-22.389,1.26E+08
26148,32.231,-19.225,-19.893,1.29E+08
26149,30.709,-20.069,-22.078,1.30E+08
26150,36.551,-20.832,-17.399,1.73E+08
26151,35.532,-18.001,-18.975,1.44E+08
26152,33.836,-21.541,-17.616,1.31E+08
26153,35.085,-20.597,-16.731,1.46E+08
26154,36.852,-19.951,-18.097,1.65E+08
26155,34.507,-19.129,-21.064,1.29E+08
26156,33.292,-19.03,-18.568,1.29E+08
26157,36.733,-19.372,-20.77,1.36E+08
26158,-3.6286,9.0997,70.898,3.75E+08
26159,-4.0994,10.891,70.172,2.95E+08
26160,-4.9038,11.064,72.177,2.61E+08
26161,-5.3212,12.935,73.048,2.41E+08
26162,-4.587,12.918,71.43,2.65E+08
26163,-3.0931,5.9514,67.634,3.27E+08
26164,-4.1334,7.672,68.409,2.96E+08
26165,-5.7885,5.9886,69.744,2.36E+08
26166,-4.9379,7.844,70.414,2.62E+08
26167,-4.923,4.168,67.831,2.62E+08
26168,-5.4606,5.2282,68.113,2.50E+08
26169,-4.622,5.3149,70.276,2.42E+08
26170,3.5361,8.9263,70.691,3.87E+08
26171,5.4274,13.641,71.268,2.83E+08
26172,5.2631,11.336,72.677,2.72E+08
26173,4.7851,14.761,73.854,2.75E+08
26174,5.1559,12.848,73.517,2.89E+08
26175,2.8737,13.687,71.581,3.10E+08
26176,3.9808,12.085,70.548,3.07E+08
26177,3.773,15.407,71.807,2.81E+08
26178,4.2772,3.929,66.868,3.28E+08
26179,5.1835,6.7003,66.812,3.13E+08
26180,5.9714,5.4184,69.413,2.86E+08
26181,5.3265,7.4114,70.581,3.10E+08
26182,2.9155,5.976,66.607,3.56E+08
26183,4.0442,8.1605,68.452,3.49E+08
26184,-33.663,-13.956,-21.245,3.14E+08
26185,-35.607,-14.075,-17.534,3.11E+08
26186,-33.33,-12.82,-18.178,2.37E+08
26187,-33.662,-14.687,-16.686,2.49E+08
26188,-35.327,-11.91,-18.497,2.32E+08
26189,-34.063,-11.902,-20.754,2.34E+08
26190,-32.627,-14.901,-18.893,2.58E+08
26191,-32.395,-12.713,-19.816,2.40E+08
26192,-31.495,-13.801,-24.608,3.13E+08
26193,-30.314,-13.873,-22.884,2.70E+08
26194,-32.961,-11.902,-22.501,2.41E+08
26195,-31.524,-14.901,-20.64,2.63E+08
26196,-31.383,-12.473,-23.612,2.62E+08
26197,-31.293,-12.713,-21.563,2.47E+08
26198,-28.903,-13.797,-27.612,3.26E+08
26199,-29.233,-13.748,-24.492,2.63E+08
26200,-29.36,-11.668,-26.898,2.51E+08
26201,-27.991,-12.585,-25.851,2.59E+08
26202,-31.462,-11.118,-26.673,2.24E+08
26203,-30.301,-12.348,-25.22,2.58E+08
26204,-25.097,-12.322,-28.819,2.84E+08
26205,-27.73,-13.87,-25.871,2.81E+08
26206,-25.14,-14.331,-28.489,2.97E+08
26207,-27.857,-11.79,-28.276,2.68E+08
26208,-26.489,-12.707,-27.229,2.77E+08
26209,-26.204,-15.183,-26.556,2.79E+08
26210,-26.114,-11.531,-30.524,2.75E+08
26211,-38.105,-12.863,-13.414,2.72E+08
26212,-34.169,-12.939,-16.216,2.37E+08
26213,-34.502,-14.806,-14.724,2.53E+08
26214,-35.633,-14.234,-12.73,2.70E+08
26215,-36.167,-12.029,-16.535,2.33E+08
26216,-34.908,-12.705,-14.162,2.28E+08
26217,8.45,-27.771,34.593,1.68E+08
26218,7.6973,-24.14,40.382,1.17E+08
26219,9.0935,-24.919,36.59,1.22E+08
26220,11.057,-26.384,35.967,1.03E+08
26221,11.35,-25.266,38.625,7.13E+07
26222,7.1467,-25.772,36.767,1.32E+08
26223,34.012,-22.647,-15.319,1.61E+08
26224,35.261,-21.703,-14.435,1.72E+08
26225,34.454,-23.289,-13.853,1.59E+08
26226,36.267,-20.426,-14.848,1.69E+08
26227,38.033,-19.78,-16.214,1.94E+08
26228,37.712,-20.283,-14.81,2.07E+08
26229,53.802,2.8057,5.7305,8.08E+07
26230,52.244,1.8801,5.4506,8.35E+07
26231,50.861,2.6449,4.986,1.11E+08
26232,47.057,-0.47421,6.2057,1.04E+08
26233,47.735,1.2639,4.9396,1.23E+08
26234,-4.7356,23.134,-59.52,7.30E+07
26235,-5.1399,24.649,-62.301,5.14E+07
26236,-4.073,25.092,-60.151,5.99E+07
26237,4.629,23.269,-58.857,7.42E+07
26238,5.135,24.654,-62.269,5.04E+07
26239,3.8824,24.733,-60.703,6.05E+07
26240,5.6516,24.47,-59.884,5.20E+07
26241,-4.389,24.645,-47.095,1.23E+08
26242,-5.2589,26.491,-44.268,9.70E+07
26243,-4.0907,26.328,-45.58,1.01E+08
26244,4.646,24.557,-46.504,1.38E+08
26245,5.1398,26.521,-44.487,1.02E+08
26246,4.2285,26.403,-46.675,1.02E+08
26247,-4.9346,23.805,-51.922,1.09E+08
26248,-5.3708,23.043,-56.254,9.21E+07
26249,-6.5803,22.151,-54.394,1.04E+08
26250,-7.4319,24.01,-52.864,6.77E+07
26251,-4.7509,25.073,-56.893,7.08E+07
26252,-6.5981,24.268,-55.568,7.09E+07
26253,-6.9464,22.322,-48.77,1.42E+08
26254,-6.6262,22.381,-51.726,1.19E+08
26255,-6.9436,26.218,-50.007,8.46E+07
26256,-7.96,23.297,-47.818,8.69E+07
26257,-7.4885,24.253,-50.198,8.32E+07
26258,-7.1411,25.84,-48.023,8.05E+07
26259,-4.7062,25.755,-47.743,9.71E+07
26260,5.7143,22.983,-54.257,1.11E+08
26261,7.1763,21.116,-57.462,8.60E+07
26262,7.3495,21.126,-55.1,1.16E+08
26263,7.9646,22.184,-57.791,7.29E+07
26264,7.9048,23.452,-55.478,6.96E+07
26265,4.9543,24.317,-58.511,6.64E+07
26266,6.7235,24.054,-57.693,7.34E+07
26267,7.2112,21.847,-50.065,1.66E+08
26268,5.7256,23.448,-49.74,1.42E+08
26269,7.3927,21.317,-52.697,1.29E+08
26270,7.9778,23.095,-49.527,1.07E+08
26271,7.9628,23.656,-53.077,8.41E+07
26272,5.3537,25.369,-49.919,9.59E+07
26273,7.6131,24.811,-51.319,8.63E+07
26274,-8.8813,17.104,-57.611,1.57E+08
26275,-7.2165,20.984,-58.204,9.91E+07
26276,-8.0649,19.792,-56.312,1.40E+08
26277,-9.9037,17.809,-58.781,1.14E+08
26278,-9.3707,20.371,-58.71,1.05E+08
26279,-10.029,18.947,-56.543,1.21E+08
26280,-8.3515,12.381,-56.521,2.67E+08
26281,-8.8091,17.718,-55.463,1.57E+08
26282,-8.5663,13.214,-54.281,2.61E+08
26283,-8.9837,15.48,-53.95,2.37E+08
26284,-11.427,14.933,-55.796,1.75E+08
26285,-10.827,13.33,-57.419,1.65E+08
26286,-10.269,15.659,-57.923,1.72E+08
26287,-10.068,12.966,-55.348,1.95E+08
26288,-10.395,16.797,-55.686,1.72E+08
26289,-5.3981,8.5506,-56.157,4.75E+08
26290,-7.4146,10.881,-54.074,3.77E+08
26291,-5.8785,9.1749,-53.915,4.16E+08
26292,-8.9533,9.5172,-59.027,3.36E+08
26293,-7.6239,8.1491,-55.168,3.45E+08
26294,-9.8647,10.943,-57.206,2.94E+08
26295,-9.1057,10.579,-55.135,3.20E+08
26296,-7.2202,7.7773,-57.195,3.60E+08
26297,-10.051,8.5065,-56.632,3.12E+08
26298,-1.2908,6.8328,-56.184,6.25E+08
26299,-3.9718,7.9205,-53.784,5.46E+08
26300,-2.0084,7.2219,-53.764,5.61E+08
26301,-5.8094,6.7965,-55.026,4.77E+08
26302,-3.3719,5.3889,-56.318,5.03E+08
26303,-5.4057,6.4247,-57.053,5.18E+08
26304,-3.4484,5.6695,-54.25,4.74E+08
26305,3.1229,7.2738,-56.448,5.84E+08
26306,0.17602,6.9762,-53.946,6.35E+08
26307,2.4375,7.309,-53.981,5.81E+08
26308,-1.2148,5.0564,-56.491,5.56E+08
26309,1.5886,4.8937,-54.45,5.29E+08
26310,0.61071,5.1888,-57.276,6.15E+08
26311,2.4517,5.2202,-56.408,5.83E+08
26312,-1.2913,5.337,-54.423,5.19E+08
26313,6.7736,9.7716,-56.741,4.06E+08
26314,4.5337,8.1922,-54.083,5.30E+08
26315,6.1512,9.3358,-54.729,4.52E+08
26316,4.57,5.9987,-56.499,4.62E+08
26317,7.546,8.7718,-57.435,4.51E+08
26318,6.584,7.0647,-55.067,4.52E+08
26319,5.791,6.7619,-57.482,5.13E+08
26320,8.7438,13.53,-57.282,2.06E+08
26321,7.5563,11.005,-54.927,3.53E+08
26322,8.4796,12.917,-54.653,2.70E+08
26323,8.9777,10.397,-57.628,3.14E+08
26324,10.221,12.1,-56.545,2.41E+08
26325,8.0157,8.6899,-55.26,2.98E+08
26326,10.244,10.194,-55.58,2.70E+08
26327,8.8197,17.407,-57.931,1.17E+08
26328,8.8735,17.366,-55.564,1.51E+08
26329,8.9493,14.956,-54.99,2.14E+08
26330,10.776,15.068,-59.973,8.81E+07
26331,9.4753,12.414,-57.963,1.84E+08
26332,12.044,14.811,-58.478,1.01E+08
26333,10.729,16.824,-58.516,1.15E+08
26334,10.719,14.117,-56.88,1.42E+08
26335,10.667,16.464,-56.717,1.37E+08
26336,8.3847,19.111,-55.866,1.40E+08
26337,10.366,18.589,-58.82,8.75E+07
26338,9.2734,20.363,-58.578,8.61E+07
26339,10.304,18.229,-57.022,1.04E+08
26340,8.9326,17.75,-48.037,2.68E+08
26341,7.1749,22.118,-47.951,1.81E+08
26342,8.3785,19.652,-50.872,2.09E+08
26343,9.7646,19.033,-46.812,2.34E+08
26344,9.2218,21.61,-47.721,1.86E+08
26345,10.787,20.642,-49.778,1.56E+08
26346,9.2068,22.171,-51.271,1.53E+08
26347,10.536,19.098,-48.473,1.84E+08
26348,8.2974,13.167,-47.778,3.50E+08
26349,8.9652,17.164,-50.663,2.49E+08
26350,8.8446,14.755,-50.089,3.19E+08
26351,11.004,13.987,-46.957,2.84E+08
26352,10.075,16.522,-46.6,3.10E+08
26353,11.556,14.559,-49.786,2.49E+08
26354,10.134,12.723,-49.139,2.71E+08
26355,10.845,16.587,-48.261,2.68E+08
26356,5.5438,9.583,-47.402,3.51E+08
26357,5.7516,9.5142,-49.659,3.95E+08
26358,7.1487,10.906,-50.331,4.01E+08
26359,8.2164,12.74,-50.049,3.26E+08
26360,8.8861,10.723,-44.753,3.60E+08
26361,6.7825,7.9302,-46.245,2.96E+08
26362,10.195,12.053,-46.925,3.09E+08
26363,9.3244,10.789,-49.107,3.33E+08
26364,7.3169,8.8437,-48.325,3.33E+08
26365,9.1712,9.5195,-46.687,3.26E+08
26366,1.2008,7.7812,-47.041,3.24E+08
26367,1.4647,7.5851,-49.285,4.11E+08
26368,3.6549,8.237,-49.353,4.46E+08
26369,3.941,6.9971,-44.19,2.76E+08
26370,4.8566,6.4503,-45.919,2.95E+08
26371,5.391,7.3638,-47.998,3.39E+08
26372,3.2006,6.7688,-47.287,3.36E+08
26373,-3.381,8.3804,-46.877,3.01E+08
26374,-2.8587,7.9349,-49.268,3.87E+08
26375,-0.81993,7.503,-49.276,4.57E+08
26376,-2.9065,6.2814,-47.58,3.11E+08
26377,-0.40149,5.6641,-45.602,2.75E+08
26378,-3.5503,7.1924,-45.725,2.61E+08
26379,-2.7661,5.5312,-45.817,2.76E+08
26380,0.95326,6.4679,-47.255,3.07E+08
26381,-0.89509,5.4238,-47.879,3.12E+08
26382,-7.0271,11.113,-46.881,2.87E+08
26383,-6.725,10.499,-49.289,3.28E+08
26384,-4.9883,8.9956,-49.152,3.97E+08
26385,-5.0848,7.1832,-47.447,2.83E+08
26386,-8.0436,9.2254,-46.006,2.54E+08
26387,-5.7287,8.0943,-45.592,2.72E+08
26388,-7.5348,8.2067,-48.147,2.96E+08
26389,-8.798,14.854,-46.937,2.75E+08
26390,-7.9815,12.318,-49.425,3.27E+08
26391,-8.7655,14.483,-49.084,2.67E+08
26392,-10.401,12.813,-44.519,2.50E+08
26393,-10.233,12.723,-48.536,2.47E+08
26394,-9.4161,10.937,-46.13,2.45E+08
26395,-8.9073,9.9183,-48.272,2.42E+08
26396,-10.811,13.222,-46.347,2.32E+08
26397,-8.8215,18.49,-47.551,2.38E+08
26398,-8.9993,16.428,-49.006,2.73E+08
26399,-10.776,16.712,-44.646,2.58E+08
26400,-10.564,18.95,-44.882,2.26E+08
26401,-10.64,14.628,-48.454,2.10E+08
26402,-10.845,17.612,-47.873,2.18E+08
26403,-9.9645,19.675,-46.62,2.02E+08
26404,-11.217,15.127,-46.265,2.15E+08
26405,-8.1063,20.244,-51.198,1.80E+08
26406,-8.8498,18.117,-49.697,2.14E+08
26407,-10.498,19.265,-48.56,1.62E+08
26408,-9.6176,21.327,-47.307,1.61E+08
26409,-9.1461,22.283,-49.687,1.43E+08
26410,-6.9747,21.523,-56.048,1.11E+08
26411,-6.2989,24.095,-60.707,6.32E+07
26412,-8.1748,22.014,-58.437,7.16E+07
26413,-5.232,24.538,-58.557,6.43E+07
26414,-7.6154,24.47,-58.866,6.20E+07
26415,-7.0792,23.733,-57.232,7.18E+07
26416,6.2183,25.749,-45.615,1.23E+08
26417,7.9312,23.356,-47.411,1.22E+08
26418,5.307,25.63,-47.803,1.12E+08
26419,7.3959,25.509,-47.306,1.04E+08
26420,7.5664,25.072,-49.203,1.03E+08
26421,-8.7481,18.285,-52.664,1.81E+08
26422,-10.287,19.395,-51.524,1.29E+08
26423,-10.719,21.339,-54.277,9.96E+07
26424,-9.1962,20.952,-56.559,1.13E+08
26425,-8.9343,22.413,-52.651,1.12E+08
26426,-9.8546,19.527,-54.392,1.25E+08
26427,-8.1005,22.672,-55.354,1.01E+08
26428,8.9808,16.721,-52.931,2.00E+08
26429,10.9,20.075,-52.406,1.28E+08
26430,9.38,20.336,-56.212,1.22E+08
26431,9.3202,21.604,-53.899,1.19E+08
26432,11.386,20.813,-54.652,1.09E+08
26433,10.41,18.203,-54.656,1.40E+08
26434,10.649,18.531,-51.101,1.60E+08
26435,-6.3422,9.8438,-51.658,3.60E+08
26436,-8.6474,13.775,-51.482,2.64E+08
26437,-7.9819,8.9085,-52.92,2.94E+08
26438,-10.017,12.053,-50.938,2.65E+08
26439,-9.4637,11.339,-52.888,2.90E+08
26440,-8.6909,9.2482,-50.674,2.79E+08
26441,-2.6044,7.6189,-51.499,4.57E+08
26442,-4.6215,6.6229,-49.826,3.57E+08
26443,-6.3625,7.3068,-52.772,3.95E+08
26444,-7.0715,7.6465,-50.526,3.55E+08
26445,-4.0014,6.1798,-51.996,3.79E+08
26446,-5.6316,5.5562,-51.042,3.53E+08
26447,1.7274,7.3968,-51.529,4.70E+08
26448,-2.6407,6.0218,-49.817,3.93E+08
26449,0.85932,5.1353,-52.014,4.31E+08
26450,-2.0206,5.5787,-51.987,4.34E+08
26451,1.219,6.2084,-49.492,3.96E+08
26452,-0.62935,5.1642,-50.116,3.99E+08
26453,5.6059,9.1241,-52.237,4.12E+08
26454,3.0848,5.5682,-52.059,3.98E+08
26455,3.9479,5.8947,-54.017,4.50E+08
26456,5.962,6.9607,-52.586,4.28E+08
26457,5.6349,7.2362,-50.249,3.94E+08
26458,3.4445,6.6412,-49.538,3.95E+08
26459,8.1379,12.298,-52.622,2.97E+08
26460,9.7356,11.558,-54.522,2.79E+08
26461,9.2103,10.369,-51.682,3.21E+08
26462,7.5299,8.1476,-53.237,3.43E+08
26463,7.2028,8.4231,-50.899,3.34E+08
26464,9.7582,9.652,-53.556,3.12E+08
26465,11.518,14.119,-52.055,2.13E+08
26466,10.621,13.473,-54.248,2.06E+08
26467,10.096,12.283,-51.408,2.44E+08
26468,10.569,15.819,-54.085,1.98E+08
26469,10.808,16.148,-50.53,2.24E+08
26470,-10.638,14.253,-50.6,2.00E+08
26471,-11.443,15.505,-52.997,1.89E+08
26472,-10.843,17.237,-50.019,2.01E+08
26473,-10.085,13.539,-52.55,1.99E+08
26474,-10.411,17.369,-52.888,1.91E+08
26475,7.2434,-17.779,-53.589,2.39E+07
26476,8.1401,-15.253,-55.645,7.80E+07
26477,8.8174,-16.028,-54.135,5.81E+07
26478,7.1939,-18.722,-51.255,1.08E+07
26479,8.2072,-18.382,-49.573,1.60E+07
26480,8.7817,-16.664,-52.936,5.15E+07
26481,8.2219,-18.06,-50.688,1.83E+07
26482,-7.0424,-17.86,-52.426,5.79E+07
26483,-8.0741,-18.037,-51.207,7.34E+07
26484,-8.784,-16.132,-53.61,7.03E+07
26485,-8.0737,-17.115,-53.208,5.45E+07
26486,-6.8691,-14.816,-45.24,2.00E+08
26487,-7.0919,-12.69,-46.202,1.55E+08
26488,-8.0852,-13.707,-47.398,1.59E+08
26489,-8.2874,-15.219,-46.478,1.47E+08
26490,-7.5651,-13.794,-44.823,1.46E+08
26491,-7.6452,-16.614,-43.844,1.66E+08
26492,-7.5146,-14.373,-43.964,1.64E+08
26493,-6.9484,-15.619,-43.327,1.69E+08
26494,-8.3932,-15.488,-43.474,1.48E+08
26495,7.9427,-13.705,-46.287,1.32E+08
26496,7.7268,-14.005,-44.54,1.29E+08
26497,6.6982,-13.151,-45.556,1.39E+08
26498,7.8328,-15.005,-45.626,1.14E+08
26499,-5.5606,-3.6794,69.894,6.18E+07
26500,5.7561,-2.6522,70.195,8.68E+07
26501,6.417,-6.6265,68.98,5.74E+07
26502,-52.242,-1.2856,86.973,1.08E+07
26503,-50.216,-2.7516,83.95,2.05E+07
26504,-68.602,-2.3618,71.234,1.72E+07
26505,-56.557,-1.5205,88.442,1.88E+07
26506,-52.386,-2.9741,85.268,2.23E+07
26507,-54.999,-3.0395,86.778,1.99E+07
26508,-56.018,-2.5418,87.564,1.84E+07
26509,-61.055,-1.4489,88.035,2.43E+07
26510,-59.792,-2.4621,86.521,2.23E+07
26511,-58.111,-2.4181,87.662,2.18E+07
26512,-65.525,-1.3427,85.791,2.59E+07
26513,-64.308,-2.6556,85.09,2.19E+07
26514,-62.149,-2.5094,85.968,2.46E+07
26515,-66.392,-2.6252,83.515,2.25E+07
26516,-68.776,-2.2126,78.553,2.38E+07
26517,-69.343,-2.5049,73.791,1.92E+07
26518,-69.119,-2.225,76.38,2.05E+07
26519,-82.088,-1.2856,-59.623,5.91E+05
26520,-79.785,-2.4037,-57.608,4.54E+05
26521,-64.925,-2.5163,-74.467,7.16E+05
26522,-62.898,-2.5508,-73.771,5.86E+05
26523,-83.177,-1.5205,-64.05,7.81E+05
26524,-80.909,-2.6262,-59.885,2.01E+05
26525,-81.565,-2.8937,-62.312,4.46E+05
26526,-82.272,-2.115,-63.562,5.90E+05
26527,-82.379,-1.4489,-68.496,4.06E+05
26528,-81.094,-2.6584,-67.152,3.51E+05
26529,-82.188,-1.9913,-65.656,5.82E+05
26530,-79.754,-1.3427,-72.753,1.69E+05
26531,-80.338,-2.7057,-69.452,4.69E+05
26532,-79.002,-2.8205,-71.144,3.60E+05
26533,-77.252,-2.79,-73.082,5.01E+05
26534,-72.26,-2.2126,-75.36,6.39E+05
26535,-67.408,-2.6595,-75.428,7.02E+05
26536,-70.066,-2.225,-75.513,6.65E+05
26537,-70.488,-11.214,72.972,1.19E+07
26538,-68.29,-9.7864,71.125,2.00E+07
26539,-68.917,-9.7075,72.941,1.70E+07
26540,-50.332,-10.225,84.354,1.82E+07
26541,-70.791,-10.98,77.52,1.91E+07
26542,-69.629,-9.4849,75.379,2.10E+07
26543,-69.068,-9.5876,77.327,1.75E+07
26544,-69.233,-11.051,81.76,2.43E+07
26545,-68.622,-9.7113,79.375,2.05E+07
26546,-65.909,-11.157,85.497,2.73E+07
26547,-66.275,-9.8287,83.738,2.24E+07
26548,-64.215,-9.8591,85.343,2.25E+07
26549,-58.555,-9.5723,87.187,2.08E+07
26550,-54.468,-10.123,86.88,1.88E+07
26551,-66.551,-11.214,-76.58,8.01E+05
26552,-65.023,-9.9342,-74.24,6.08E+05
26553,-66.642,-9.7235,-74.999,5.41E+05
26554,-79.813,-10.274,-57.468,6.57E+05
26555,-71.055,-10.98,-77.278,1.14E+06
26556,-69.008,-9.501,-75.921,8.30E+05
26557,-70.809,-9.5602,-75.462,7.62E+05
26558,-75.415,-11.051,-76.095,1.04E+06
26559,-72.888,-9.6838,-75.196,9.06E+05
26560,-74.912,-9.9363,-74.892,8.14E+05
26561,-79.427,-11.157,-73.11,5.93E+05
26562,-77.138,-9.8891,-73.938,8.43E+05
26563,-79.773,-9.7398,-70.35,5.43E+05
26564,-81.741,-9.7138,-65.882,2.09E+05
26565,-81.804,-10.157,-61.803,3.66E+05
26566,9.4076,-17.546,60.408,6.57E+07
26567,9.5519,-14.553,63.738,6.04E+07
26568,9.2724,-11.704,66.45,4.26E+07
26569,9.505,-7.4046,68.61,3.51E+07
26570,8.8545,-3.4484,69.97,4.89E+07
26571,10.492,24.069,84.247,3.24E+08
26572,8.9341,26.527,85.322,2.11E+08
26573,9.1618,28.901,89.501,1.76E+08
26574,9.2394,29.064,87.594,1.83E+08
26575,9.0018,27.58,87.286,1.97E+08
26576,10.492,17.469,77.967,4.45E+08
26577,9.2144,22.414,79.908,3.40E+08
26578,10.806,14.809,73.491,4.61E+08
26579,8.8337,11.792,73.881,3.57E+08
26580,8.3558,15.217,75.059,3.61E+08
26581,8.7265,13.304,74.721,3.80E+08
26582,-10.492,17.469,77.967,2.87E+08
26583,-8.4129,11.765,73.487,2.08E+08
26584,-8.8303,13.636,74.358,2.35E+08
26585,-8.9488,15.159,75.382,2.40E+08
26586,-10.492,24.069,84.247,2.00E+08
26587,-10.806,22.379,79.252,2.81E+08
26588,-9.0036,23.39,80.517,2.01E+08
26589,-8.5436,21.503,80.056,1.92E+08
26590,-10.806,28.89,86.388,1.35E+08
26591,-8.6495,27.429,86.265,1.04E+08
26592,-9.4294,29.086,88.662,1.00E+08
26593,-10.398,28.088,91.139,9.08E+07
26594,-8.6601,-3.7183,69.867,4.33E+07
26595,-9.6404,-7.7015,68.679,4.67E+07
26596,-9.5215,-11.489,66.204,5.40E+07
26597,-9.5471,-15.06,63.241,5.80E+07
26598,-8.9406,-17.959,58.83,6.51E+07
26599,-9.5493,-16.641,61.463,5.96E+07
26600,-11.041,46.692,54.588,1.04E+08
26601,-11.074,48.236,56.411,8.27E+07
26602,-11.034,50.052,61.502,4.88E+07
26603,-12.175,50.973,62.302,4.64E+07
26604,-11.884,34.904,121.34,1.76E+06
26605,-12.766,58.505,115.25,5.19E+06
26606,-10.937,55.872,112.14,1.01E+07
26607,-11.982,56.074,113.65,7.56E+06
26608,-11.13,57.051,114.03,5.03E+06
26609,-12.465,58.948,120.29,3.99E+06
26610,-10.984,57.583,118.28,4.21E+06
26611,-11.051,57.705,120.08,3.41E+06
26612,-10.86,57.968,116.72,4.74E+06
26613,-12.635,57.061,124.79,3.31E+06
26614,-11.196,57.183,122.34,3.79E+06
26615,-12.636,53.569,128.54,2.25E+06
26616,-10.535,54.165,125.94,2.64E+06
26617,-11.268,52.866,127.45,1.91E+06
26618,-11.106,55.914,124.57,3.20E+06
26619,-12.689,48.343,130.7,1.08E+06
26620,-11.336,50.684,128.94,1.74E+06
26621,-10.769,45.736,129.57,9.01E+05
26622,-11.268,47.686,129.56,1.12E+06
26623,-11.138,41.184,128.4,6.08E+05
26624,-11.159,37.253,126.03,7.50E+05
26625,65.128,-18.233,22.306,6.17E+07
26626,66.312,-15.834,21.341,6.45E+07
26627,65.229,-16.766,21.296,6.34E+07
26628,51.205,-24.404,22.181,8.40E+07
26629,48.809,-23.823,21.509,9.67E+07
26630,60.712,-21.184,22.259,6.18E+07
26631,61.258,-19.674,20.792,6.39E+07
26632,63.063,-18.629,21.206,6.26E+07
26633,56.2,-23.121,22.259,6.72E+07
26634,59.085,-20.828,20.792,6.54E+07
26635,56.904,-21.512,20.782,6.81E+07
26636,54.571,-22.292,20.782,7.22E+07
26637,52.585,-22.537,20.805,7.82E+07
26638,51.477,-23.398,21.535,8.39E+07
26639,39.812,-12.963,-58.356,4.83E+06
26640,38.562,-12.484,-57.367,6.37E+06
26641,39.019,-10.616,-58.094,7.40E+06
26642,39.701,-19.472,-50.256,1.19E+07
26643,38.99,-18.946,-49.505,1.00E+07
26644,38.466,-14.489,-56.56,6.24E+06
26645,38.507,-15.965,-54.91,8.07E+06
26646,39.039,-18.739,-50.271,9.71E+06
26647,12.298,-15.259,-57.444,1.25E+08
26648,14.985,-13.292,-58.659,1.31E+08
26649,14.958,-15.337,-57.384,1.20E+08
26650,10.801,-13.529,-57.514,1.49E+08
26651,11.478,-14.304,-56.005,1.23E+08
26652,12.484,-11.992,-56.653,1.36E+08
26653,14.211,-12.8,-56.73,1.26E+08
26654,-11.932,-15.181,-57.503,1.05E+08
26655,-13.5,-14.286,-58.11,9.13E+07
26656,-12.491,-12.34,-56.807,1.08E+08
26657,-10.311,-13.845,-57.798,1.01E+08
26658,12.526,-17.821,-54.784,8.81E+07
26659,14.654,-16.774,-56.075,9.97E+07
26660,11.175,-15.847,-54.833,1.08E+08
26661,13.702,-16.197,-53.987,9.41E+07
26662,13.907,-14.342,-55.558,1.08E+08
26663,15.078,-19.19,-52.223,6.68E+07
26664,15.186,-17.878,-54.703,8.11E+07
26665,11.706,-16.856,-53.395,8.96E+07
26666,11.146,-18.252,-51.147,4.87E+07
26667,14.234,-17.206,-52.549,7.71E+07
26668,12.37,-17.253,-50.876,7.47E+07
26669,-11.942,-17.792,-54.825,1.06E+08
26670,-13.7,-18.711,-53.299,9.28E+07
26671,-11.086,-17.005,-53.101,1.09E+08
26672,-10.376,-17.988,-52.698,8.68E+07
26673,-13.745,-15.956,-56.872,9.58E+07
26674,-13.934,-17.855,-54.735,9.53E+07
26675,-12.735,-14,-55.567,1.12E+08
26676,-11.32,-16.04,-54.462,1.12E+08
26677,-10.556,-15.505,-56.559,1.05E+08
26678,-14.017,-15.028,-54.155,1.09E+08
26679,-15.503,-17.199,-55.595,7.92E+07
26680,-14.304,-13.191,-56.284,9.88E+07
26681,-16.509,-15.444,-55.594,7.06E+07
26682,-16.553,-13.251,-57.129,7.23E+07
26683,-15.585,-14.219,-54.872,9.60E+07
26684,-13.078,-17.054,-53.003,9.82E+07
26685,-16.699,-17.267,-53.419,6.88E+07
26686,-14.951,-17.105,-50.961,9.89E+07
26687,-15.775,-16.042,-52.696,9.56E+07
26688,-17.006,-18.025,-51.641,6.61E+07
26689,33.845,-16.548,-56.311,1.16E+07
26690,31.289,-18.54,-53.626,1.64E+07
26691,31.13,-17.364,-55.394,1.78E+07
26692,32.288,-16.555,-52.389,1.38E+07
26693,35.061,-16.927,-52.394,6.98E+06
26694,35.411,-16.063,-55.111,9.61E+06
26695,32.697,-16.549,-54.124,1.22E+07
26696,32.287,-13.793,-58.398,1.88E+07
26697,31.382,-15.691,-57.101,1.71E+07
26698,35.242,-12.252,-56.665,1.02E+07
26699,35.663,-14.393,-56.805,1.01E+07
26700,32.885,-12.106,-57.352,1.51E+07
26701,32.949,-14.88,-55.818,1.12E+07
26702,36.119,-12.526,-57.532,1.05E+07
26703,35.43,-13.238,-56.303,9.21E+06
26704,18.838,-19.234,-52.108,6.26E+07
26705,17.206,-18.483,-53.728,7.81E+07
26706,18.114,-17.924,-50.227,6.41E+07
26707,16.254,-17.62,-51.481,7.25E+07
26708,16.171,-17.99,-49.285,6.57E+07
26709,26.893,-18.962,-52.771,3.37E+07
26710,22.689,-18.897,-52.914,5.30E+07
26711,26.734,-17.93,-54.627,3.27E+07
26712,23.83,-18.006,-54.512,5.07E+07
26713,25.635,-17.234,-51.279,4.05E+07
26714,23.466,-17.16,-52.064,4.96E+07
26715,23.873,-17.821,-49.718,4.48E+07
26716,25.815,-16.585,-53.18,3.99E+07
26717,28.826,-17.934,-54.621,2.40E+07
26718,27.727,-17.236,-51.273,3.10E+07
26719,29.983,-17.014,-51.547,2.24E+07
26720,27.906,-16.587,-53.174,3.01E+07
26721,30.393,-17.008,-53.282,1.97E+07
26722,19.202,-13.483,-58.563,9.95E+07
26723,17.341,-15.042,-57.606,1.06E+08
26724,16.594,-12.468,-56.893,1.10E+08
26725,18.515,-13.252,-56.49,9.45E+07
26726,23.579,-13.724,-58.436,5.96E+07
26727,19.175,-15.505,-57.253,8.66E+07
26728,21.947,-15.47,-57.28,6.99E+07
26729,22.08,-12.649,-56.865,6.77E+07
26730,20.348,-13.77,-56.225,7.46E+07
26731,28.3,-13.143,-58.731,3.12E+07
26732,27.395,-15.116,-57.552,3.27E+07
26733,24.49,-15.226,-57.469,4.75E+07
26734,26.593,-11.385,-57.132,3.34E+07
26735,24.624,-12.378,-57.012,4.60E+07
26736,26.475,-13.83,-56.082,3.43E+07
26737,29.572,-14.837,-57.751,2.30E+07
26738,28.771,-11.075,-57.279,2.45E+07
26739,31.075,-11.167,-57.869,2.04E+07
26740,18.945,-17.947,-54.601,7.91E+07
26741,21.718,-17.922,-54.638,5.99E+07
26742,19.853,-17.564,-51.185,6.13E+07
26743,21.354,-17.097,-52.201,5.97E+07
26744,17.994,-17.26,-52.439,7.07E+07
26745,20.119,-16.189,-53.608,6.95E+07
26746,20.086,-16.811,-56.035,7.66E+07
26747,16.362,-16.264,-53.915,8.62E+07
26748,16.567,-14.41,-55.486,1.01E+08
26749,18.488,-15.194,-55.083,8.53E+07
26750,25.763,-16.687,-56.167,4.12E+07
26751,27.748,-15.401,-54.925,2.88E+07
26752,30.234,-15.821,-55.032,1.94E+07
26753,22.992,-14.043,-55.756,5.79E+07
26754,22.495,-16.071,-53.709,5.47E+07
26755,24.843,-15.496,-54.825,4.61E+07
26756,21.26,-15.164,-55.116,6.53E+07
26757,-18.744,-10.993,-58.01,6.61E+07
26758,-18.725,-8.988,-58.787,7.79E+07
26759,-19.739,-19.066,-51.605,2.28E+07
26760,-19.153,-18.965,-48.302,2.50E+07
26761,-18.936,-18.516,-49.722,3.30E+07
26762,-18.705,-16.951,-53.7,4.22E+07
26763,-19.012,-17.71,-51.922,3.95E+07
26764,-18.746,-15.464,-55.34,4.87E+07
26765,-18.789,-13.271,-56.874,5.33E+07
26766,20.771,0.99229,-49.437,4.32E+08
26767,18.793,1.3343,-44.651,3.41E+08
26768,20.819,-1.062,-45.207,3.19E+08
26769,18.849,0.99186,-47.583,3.55E+08
26770,19.093,-1.0306,-43.667,2.95E+08
26771,20.362,-1.0891,-47.606,3.24E+08
26772,18.391,-0.73843,-45.962,3.19E+08
26773,19.463,0.8124,-55.251,3.45E+08
26774,21.199,-1.3125,-53.306,3.03E+08
26775,18.777,2.7432,-52.956,3.40E+08
26776,20.613,-0.45728,-55.494,3.09E+08
26777,18.896,0.93892,-51.32,3.54E+08
26778,20.41,-1.142,-51.344,3.19E+08
26779,18.987,-1.2893,-53.61,3.05E+08
26780,-19.309,2.3685,-42.455,4.00E+08
26781,-18.411,0.10655,-40.054,3.73E+08
26782,-17.847,1.025,-42.002,3.83E+08
26783,-18.256,2.4209,-42.042,3.72E+08
26784,-19.076,1.5399,-40.854,6.26E+08
26785,-18.797,1.1069,-41.381,4.74E+08
26786,-0.23861,55.702,108.03,5.14E+07
26787,3.4614,54.214,108.97,4.17E+07
26788,1.1617,54.607,109.91,3.91E+07
26789,1.5196,54.173,107.97,4.64E+07
26790,-3.6039,53.876,108.48,4.16E+07
26791,-2.5901,53.494,105.99,4.72E+07
26792,-0.6892,54.119,107.85,4.63E+07
26793,6.9147,3.5904,41.776,5.67E+08
26794,10.006,1.4732,39.325,6.52E+08
26795,8.331,1.3899,39.186,5.33E+08
26796,6.3945,1.8488,39.893,5.00E+08
26797,9.1321,0.67916,40.748,5.17E+08
26798,7.3724,1.4463,42.043,4.88E+08
26799,9.203,2.9888,42.749,5.33E+08
26800,-4.386,3.143,41.379,4.43E+08
26801,-3.7288,1.5676,39.476,3.38E+08
26802,-5.8014,1.1502,38.757,3.35E+08
26803,-6.0472,3.2697,41.496,4.64E+08
26804,-7.8921,1.2339,40.701,4.58E+08
26805,-7.3549,2.6183,42.4,4.32E+08
26806,-5.114,1.201,41.382,3.54E+08
26807,-6.4848,-0.25174,39.225,3.01E+08
26808,-4.807,6.70E-02,39.431,2.79E+08
26809,-0.79806,4.1974,42.245,4.88E+08
26810,-2.1904,2.4997,40.714,3.73E+08
26811,-4.5089,4.4936,42.448,5.15E+08
26812,-3.6914,4.6201,44.098,4.77E+08
26813,-3.5756,2.326,42.442,3.89E+08
26814,-2.0164,2.9696,44.079,4.27E+08
26815,-1.8171,4.9865,44.966,4.64E+08
26816,3.1125,4.3233,42.333,4.95E+08
26817,2.5923,2.4159,40.618,4.16E+08
26818,-0.1408,2.3777,40.573,3.67E+08
26819,1.1861,1.522,42.58,3.57E+08
26820,2.2178,4.1179,44.295,4.42E+08
26821,3.5702,2.1316,42.656,4.03E+08
26822,-1.526,2.1741,42.334,3.77E+08
26823,3.32E-02,2.8177,43.971,4.18E+08
26824,0.23248,4.8347,44.857,4.53E+08
26825,4.4533,2.6421,40.872,4.27E+08
26826,6.2928,2.972,44.884,3.96E+08
26827,4.0788,4.398,44.488,4.54E+08
26828,5.4311,2.4116,42.849,4.17E+08
26829,5.9937,4.9649,44.383,4.37E+08
26830,7.2618,3.9542,43.555,4.59E+08
26831,9.4814,0.55354,37.381,5.95E+08
26832,10.283,-0.35493,39.061,5.49E+08
26833,11.11,-1.5756,37.643,5.50E+08
26834,5.8695,0.79894,38.017,4.30E+08
26835,5.2747,-1.255,36.481,3.16E+08
26836,7.7513,-1.7686,36.039,3.51E+08
26837,8.6071,-0.40793,38.908,4.31E+08
26838,6.6472,-1.6304,38.538,3.42E+08
26839,9.4348,-1.6286,37.49,4.33E+08
26840,1.2,1.1341,38.726,3.22E+08
26841,3.3383,-0.92517,37.256,2.58E+08
26842,2.5269,7.95E-02,40.901,3.09E+08
26843,6.6707,-7.81E-02,39.683,3.87E+08
26844,4.9109,0.68905,40.977,3.58E+08
26845,1.6788,-1.4324,39.314,2.41E+08
26846,4.7108,-1.3006,39.313,2.91E+08
26847,-3.6057,0.75775,37.919,2.62E+08
26848,-2.1385,-0.95248,37.207,1.74E+08
26849,0.60517,-0.95242,37.204,1.99E+08
26850,-0.20624,5.22E-02,40.849,2.59E+08
26851,-2.9184,0.70429,40.603,2.78E+08
26852,-1.0543,-1.4596,39.262,1.91E+08
26853,-2.6114,-0.42977,38.651,2.10E+08
26854,-4.2111,-1.2697,36.439,1.69E+08
26855,-6.3618,-1.0657,37.678,2.32E+08
26856,-4.684,-0.74704,37.884,2.06E+08
26857,-7.4777,3.8874,43.555,5.09E+08
26858,-7.2117,6.1846,44.402,4.08E+08
26859,-5.3526,4.7642,44.193,4.95E+08
26860,-5.2368,2.4701,42.537,4.05E+08
26861,-20,3.6398,-50.245,3.01E+08
26862,-20,1.0904,-51.44,2.85E+08
26863,-20,3.9472,-47.223,2.89E+08
26864,-20,-1.3731,-49.316,2.91E+08
26865,-20,1.956,-46.097,3.51E+08
26866,-18.538,0.61255,-45.644,3.37E+08
26867,-17.479,9.80E-02,-49.597,2.78E+08
26868,-17.609,2.3893,-48.829,2.87E+08
26869,-18.121,-0.70883,-47.59,3.17E+08
26870,-18.372,1.8935,-50.527,2.82E+08
26871,-18.734,-0.39836,-50.88,2.67E+08
26872,-18.764,2.4788,-47.289,3.04E+08
26873,-20,-9.0975,-54.633,8.27E+07
26874,-20,-7.9733,-52.522,1.36E+08
26875,-20,-5.3563,-52.727,1.68E+08
26876,-20,-4.8971,-55.492,1.26E+08
26877,-18.284,-5.9202,-55.816,1.13E+08
26878,-18.896,-9.1369,-55.795,8.05E+07
26879,-18.877,-7.1314,-56.571,9.60E+07
26880,-18.123,-6.8729,-53.272,1.42E+08
26881,-16.749,-7.3316,-54.849,1.07E+08
26882,-18.734,-4.3816,-54.291,1.51E+08
26883,-20,3.6503,-53.624,2.49E+08
26884,-20,6.5071,-49.407,2.52E+08
26885,-20,5.6232,-54.599,2.46E+08
26886,-20,7.202,-54.345,2.35E+08
26887,-18.836,8.0393,-52.324,2.38E+08
26888,-17.609,4.9492,-51.012,2.54E+08
26889,-17.739,7.5186,-50.596,2.27E+08
26890,-17.102,6.7164,-52.476,2.37E+08
26891,-18.372,4.4534,-52.71,2.46E+08
26892,-18.764,5.0388,-49.472,2.65E+08
26893,-18.497,6.2029,-53.646,2.34E+08
26894,-20,-1.3626,-52.695,2.25E+08
26895,-20,3.0738,-55.795,2.29E+08
26896,-20,-0.90343,-55.46,1.91E+08
26897,-18.547,0.42309,-56.258,1.93E+08
26898,-18.392,2.7137,-56.422,2.01E+08
26899,-18.372,1.904,-53.906,2.30E+08
26900,-18.734,-0.38785,-54.259,2.13E+08
26901,-18.497,3.6535,-54.841,2.18E+08
26902,-20,4.8233,-45.259,2.91E+08
26903,-18.947,4.8757,-44.846,2.33E+08
26904,-18.029,7.6754,-45.27,1.73E+08
26905,-18.836,8.3468,-49.302,2.22E+08
26906,-17.739,7.826,-47.575,2.12E+08
26907,-18.764,5.3462,-46.45,2.53E+08
26908,-18.773,9.2225,-44.885,1.82E+08
26909,-20,-10.184,-52.272,1.19E+08
26910,-20,-12.496,-52.276,8.37E+07
26911,-18.853,-13.541,-54.01,5.54E+07
26912,-18.896,-11.348,-55.544,6.75E+07
26913,-18.123,-9.0838,-53.022,1.22E+08
26914,-17.929,-12.316,-53.287,8.08E+07
26915,-20,-6.4431,-50.366,2.01E+08
26916,-20,-11.372,-50.165,1.41E+08
26917,-18.123,-7.9597,-50.911,1.74E+08
26918,-18.448,-10.387,-49.154,1.58E+08
26919,-17.929,-11.191,-51.176,1.23E+08
26920,-20,-3.3669,-53.336,1.87E+08
26921,-17.479,-2.355,-50.851,2.23E+08
26922,-18.123,-5.3426,-51.116,1.94E+08
26923,-18.121,-3.1618,-48.844,2.66E+08
26924,-18.734,-2.8513,-52.134,2.11E+08
26925,-20,6.6256,-56.516,2.16E+08
26926,-18.392,4.6866,-57.397,2.01E+08
26927,-18.497,5.6264,-55.817,2.16E+08
26928,-18.853,-14.728,-51.903,7.14E+07
26929,-18.448,-12.698,-49.158,1.33E+08
26930,-17.929,-13.503,-51.18,9.49E+07
26931,-18.734,-14.466,-48.97,9.24E+07
26932,-19.16,-15.486,-50.125,6.92E+07
26933,-18.538,1.4887,-43.68,3.22E+08
26934,-18.947,2.8845,-43.719,2.91E+08
26935,-19.488,1.5705,-43.058,4.20E+08
26936,-18.764,3.355,-45.324,3.07E+08
26937,-19.743,10.557,-54.968,1.32E+08
26938,-19.424,9.9844,-57.923,1.39E+08
26939,-18.836,9.0417,-54.24,2.08E+08
26940,-18.392,6.2655,-57.142,1.88E+08
26941,-18.532,8.9939,-57.091,1.94E+08
26942,-19.794,10.1,-56.027,1.46E+08
26943,-19.146,8.5658,-58.382,1.52E+08
26944,-18.497,7.2053,-55.562,2.04E+08
26945,-19.536,9.7147,-57.017,1.54E+08
26946,-18.547,-1.5812,-56.899,1.55E+08
26947,-18.284,-3.9308,-56.424,1.32E+08
26948,-18.734,-2.3922,-54.899,1.72E+08
26949,40,-10.556,-14.888,2.25E+08
26950,40,-10.373,-19.018,2.05E+08
26951,40,-13.566,-19.798,1.80E+08
26952,40,-14.239,-14.365,2.34E+08
26953,40,-9.9685,-17.095,2.21E+08
26954,37.87,-14.369,-17.797,1.71E+08
26955,37.48,-12.612,-15.282,1.70E+08
26956,39.189,-16.318,-16.919,1.98E+08
26957,38.257,-11.118,-17.068,1.84E+08
26958,37.998,-12.134,-18.914,1.72E+08
26959,38.042,-14.472,-15.716,1.79E+08
26960,39.071,-15.74,-19.592,1.68E+08
26961,38.765,-12.819,-14.515,2.01E+08
26962,38.926,-15.557,-15.723,1.99E+08
26963,40,-9.4842,-42.172,2.22E+07
26964,40,-7.6761,-40.555,4.45E+07
26965,40,-12.176,-40.12,2.70E+07
26966,40,-7.5929,-37.447,8.46E+07
26967,40,-12.194,-37.13,5.04E+07
26968,38.193,-9.824,-36.985,3.15E+07
26969,37.609,-11.97,-37.727,5.25E+07
26970,37.579,-8.3918,-38.766,5.86E+07
26971,38.445,-9.742,-40.469,3.48E+07
26972,40,-6.8951,-10.16,2.31E+08
26973,40,-11.048,-12.363,2.50E+08
26974,40,-9.0508,-10.943,2.60E+08
26975,40,-6.7775,-15.094,2.38E+08
26976,37.48,-9.4209,-13.281,1.86E+08
26977,37.878,-7.8466,-11.328,1.85E+08
26978,38.257,-7.9273,-15.066,2.01E+08
26979,38.391,-5.4356,-12.79,2.07E+08
26980,36.777,-7.3562,-13.52,1.75E+08
26981,38.437,-5.8901,-11.639,2.01E+08
26982,38.765,-9.6281,-12.513,2.17E+08
26983,40,-10.192,-21.927,1.78E+08
26984,40,-7.5221,-23.807,1.80E+08
26985,40,-6.5952,-19.224,2.19E+08
26986,37.589,-6.0073,-20.27,1.79E+08
26987,38.257,-7.745,-19.197,1.81E+08
26988,37.786,-6.174,-22.654,1.81E+08
26989,37.998,-8.7607,-21.043,1.69E+08
26990,37.81,-8.6339,-23.269,1.52E+08
26991,39.025,-4.8482,-20.036,2.09E+08
26992,39.11,-4.902,-22.324,2.06E+08
26993,40,-10.714,-24.586,1.53E+08
26994,40,-12.859,-25.3,1.30E+08
26995,40,-14.568,-24.569,1.39E+08
26996,37.876,-13.75,-24,1.28E+08
26997,37.87,-14.188,-20.706,1.42E+08
26998,37.998,-11.953,-21.822,1.43E+08
26999,37.81,-11.826,-24.048,1.26E+08
27000,39.071,-15.559,-22.501,1.41E+08
27001,40,-6.2314,-5.4865,1.86E+08
27002,40,-8.5812,-8.216,2.49E+08
27003,38.168,-4.784,-6.9727,1.71E+08
27004,38.062,-6.6704,-5.542,1.62E+08
27005,37.878,-7.3769,-8.6009,1.73E+08
27006,38.437,-5.4204,-8.9117,1.89E+08
27007,38.809,-8.1193,-6.4804,1.80E+08
27008,39.054,-4.24,-8.4799,2.07E+08
27009,40,-11.864,-46.638,7.59E+06
27010,40,-14.556,-44.585,1.13E+07
27011,38.207,-15.663,-44.951,1.33E+07
27012,38.245,-12.5,-47.696,1.08E+07
27013,38.264,-15.209,-48.873,5.14E+06
27014,38.108,-15.549,-47.035,7.97E+06
27015,39.165,-16.427,-48.47,4.77E+06
27016,38.119,-13.765,-45.905,1.52E+07
27017,40,-7.3081,-44.249,3.71E+07
27018,40,-11.808,-43.813,1.87E+07
27019,40,-7.1684,-47.218,1.89E+07
27020,37.573,-7.1655,-45.201,4.40E+07
27021,38.245,-9.7519,-46.925,1.52E+07
27022,38.445,-9.3739,-44.163,2.75E+07
27023,38.119,-11.017,-45.133,2.03E+07
27024,40,-12.734,-10.42,2.71E+08
27025,38.271,-13.993,-9.9298,1.96E+08
27026,38.631,-17.093,-11.098,2.19E+08
27027,37.089,-14.902,-11.948,1.83E+08
27028,38.042,-14.964,-13.192,2.05E+08
27029,38.765,-13.311,-11.99,2.27E+08
27030,38.926,-16.049,-13.198,2.26E+08
27031,40,-10.189,-27.18,1.27E+08
27032,40,-6.2557,-27.544,1.81E+08
27033,38.143,-9.1228,-28.487,9.48E+07
27034,37.786,-6.6961,-25.313,1.58E+08
27035,38.515,-7.2883,-27.829,1.65E+08
27036,37.81,-9.156,-25.928,1.29E+08
27037,39.11,-5.4241,-24.983,1.82E+08
27038,40,-5.3603,-45.601,4.15E+07
27039,40,-5.4167,-39.524,9.96E+07
27040,37.573,-5.3574,-43.583,6.44E+07
27041,37.579,-6.2157,-40.842,7.33E+07
27042,38.445,-7.5659,-42.546,4.88E+07
27043,38.614,-3.9319,-41.297,9.04E+07
27044,38.853,-3.8446,-44.223,6.51E+07
27045,40,-14.517,-38.771,4.76E+07
27046,38.207,-15.607,-42.126,2.24E+07
27047,37.609,-14.294,-39.368,4.93E+07
27048,38.445,-12.066,-42.11,3.13E+07
27049,38.119,-13.709,-43.08,2.42E+07
27050,38.206,-15.794,-39.464,3.42E+07
27051,38.895,-16.176,-40.492,2.51E+07
27052,40,-4.9184,-51.655,9.41E+06
27053,37.573,-5.2178,-46.552,4.80E+07
27054,37.591,-5.0692,-49.403,3.51E+07
27055,38.245,-7.8042,-48.277,1.86E+07
27056,38.853,-3.7049,-47.192,4.75E+07
27057,38.931,-3.8483,-49.924,2.68E+07
27058,40,-13.703,-29.275,1.13E+08
27059,40,-14.042,-27.162,1.19E+08
27060,38.143,-11.267,-29.201,6.91E+07
27061,37.876,-13.225,-26.594,1.05E+08
27062,38.3,-13.038,-28.57,1.11E+08
27063,37.81,-11.3,-26.642,1.01E+08
27064,40,-4.7917,-33.918,1.52E+08
27065,38.09,-6.418,-34.652,1.70E+08
27066,38.193,-7.5647,-35.953,8.67E+07
27067,37.712,-4.858,-35.616,1.44E+08
27068,37.579,-6.1324,-37.734,1.10E+08
27069,38.614,-3.8486,-38.188,1.29E+08
27070,38.929,-3.494,-35.58,1.48E+08
27071,38.168,-4.5899,-5.0265,1.39E+08
27072,38.811,-3.7784,-2.8366,1.50E+08
27073,38.062,-6.4764,-3.5959,1.32E+08
27074,38.809,-7.9253,-4.5342,1.50E+08
27075,40,-14.804,-33.219,9.58E+07
27076,37.609,-14.311,-36.378,7.02E+07
27077,38.273,-15.578,-34.149,6.74E+07
27078,38.206,-15.811,-36.475,5.79E+07
27079,38.895,-16.193,-37.502,4.92E+07
27080,40,-15.412,-28.543,1.23E+08
27081,38.273,-15.847,-31.585,9.27E+07
27082,38.3,-14.408,-29.95,1.15E+08
27083,38.427,-16.395,-29.076,1.06E+08
27084,38.271,-11.996,-8.5095,2.08E+08
27085,37.878,-9.5327,-9.3843,2.08E+08
27086,38.765,-11.314,-10.57,2.39E+08
27087,38.809,-10.275,-7.2638,2.15E+08
27088,40,-4.3586,-30.022,1.87E+08
27089,37.786,-4.9077,-26.391,1.83E+08
27090,38.515,-5.4999,-28.907,1.91E+08
27091,38.551,-3.3204,-27.889,2.02E+08
27092,39.11,-3.6357,-26.061,2.10E+08
27093,38.827,-3.5297,-29.662,1.92E+08
27094,38.257,-7.3402,-17.273,1.96E+08
27095,38.391,-4.8484,-14.997,2.03E+08
27096,39.025,-4.4434,-18.112,2.24E+08
27097,37.876,-14.933,-25.862,1.14E+08
27098,38.3,-14.747,-27.838,1.18E+08
27099,38.427,-16.735,-26.964,1.07E+08
27100,39.071,-16.742,-24.363,1.27E+08
27101,38.102,-6.0584,-53.898,1.62E+07
27102,37.997,-5.308,-55.807,5.52E+06
27103,39.039,-3.2802,-56.777,5.33E+06
27104,37.731,-3.4045,-56.201,5.40E+06
27105,37.774,-4.0254,-54.461,1.40E+07
27106,38.931,-3.5461,-53.009,1.51E+07
27107,38.09,-5.8762,-32.155,1.83E+08
27108,37.712,-4.3163,-33.119,1.56E+08
27109,38.515,-5.3913,-30.306,1.67E+08
27110,38.929,-2.9523,-33.084,1.61E+08
27111,38.827,-3.4211,-31.062,1.70E+08
27112,65.948,-18.094,11.775,9.36E+07
27113,63.041,-20.223,10.442,9.14E+07
27114,65.01,-18.841,13.096,8.86E+07
27115,63.278,-20.069,12.413,8.76E+07
27116,65.302,-17.88,8.2348,1.08E+08
27117,63.594,-19.241,8.1211,1.08E+08
27118,65.372,-16.283,8.8361,1.07E+08
27119,64.844,-16.586,11.158,9.39E+07
27120,63.069,-18.167,11.301,9.03E+07
27121,64.906,-17.136,12.541,8.95E+07
27122,66.049,-18.01,14.258,8.76E+07
27123,65.867,-15.737,12.32,9.29E+07
27124,65.93,-16.287,13.703,8.85E+07
27125,52.198,-24.51,10.119,8.67E+07
27126,54.789,-23.917,8.9414,8.70E+07
27127,51.411,-23.015,6.39,9.03E+07
27128,49.915,-22.747,9.3226,8.57E+07
27129,52.256,-22.064,9.1323,8.40E+07
27130,54.089,-23.208,6.2327,1.00E+08
27131,55.268,-23.78,11.69,8.58E+07
27132,53.369,-24.272,15.275,8.46E+07
27133,55.489,-23.714,14.444,8.18E+07
27134,50.405,-22.658,12.071,8.61E+07
27135,52.746,-21.975,11.881,8.30E+07
27136,51.338,-22.754,13.973,8.83E+07
27137,53.39,-22.7,13.786,8.34E+07
27138,59.456,-22.199,10.392,8.83E+07
27139,57.996,-22.832,13.266,8.39E+07
27140,59.711,-22.079,12.363,8.43E+07
27141,57.212,-21.037,8.9078,9.35E+07
27142,57.674,-20.896,12.029,8.35E+07
27143,55.293,-21.225,10.704,8.52E+07
27144,55.937,-21.951,12.609,8.46E+07
27145,57.126,-22.369,7.804,1.00E+08
27146,61.331,-21.246,12.242,8.60E+07
27147,58.863,-20.269,8.787,9.50E+07
27148,61.683,-20.471,7.9503,1.06E+08
27149,59.325,-20.127,11.908,8.46E+07
27150,61.158,-19.398,11.13,8.81E+07
27151,56.153,-23.505,16.852,8.08E+07
27152,54.668,-22.418,18.521,7.77E+07
27153,52.682,-22.664,18.543,8.39E+07
27154,52.017,-22.602,16.381,8.67E+07
27155,54.069,-22.548,16.194,8.21E+07
27156,60.336,-21.773,16.688,7.71E+07
27157,59.919,-21.979,15.116,8.06E+07
27158,58.932,-21.051,17.698,7.35E+07
27159,57.888,-20.809,14.783,7.96E+07
27160,56.75,-21.735,17.689,7.64E+07
27161,56.151,-21.865,15.363,8.07E+07
27162,63.772,-19.737,16.467,7.88E+07
27163,61.979,-20.876,15.784,7.89E+07
27164,61.016,-19.997,18.366,7.13E+07
27165,61.471,-18.323,16.766,7.30E+07
27166,62.821,-18.953,18.781,6.98E+07
27167,63.387,-19.997,14.896,8.18E+07
27168,64.391,-16.561,16.935,7.38E+07
27169,63.173,-18.088,13.784,8.43E+07
27170,62.838,-17.385,15.878,7.61E+07
27171,65.272,-17.083,17.937,7.40E+07
27172,65.01,-17.057,15.024,8.35E+07
27173,64.189,-18.015,17.892,7.33E+07
27174,60.615,-20.233,16.794,7.47E+07
27175,59.571,-19.991,13.879,8.07E+07
27176,61.404,-19.262,13.101,8.41E+07
27177,61.07,-18.558,15.194,7.62E+07
27178,47.368,1.3188,9.9939,1.52E+08
27179,44.939,0.63148,13.653,1.81E+08
27180,47.305,1.2976,12.512,1.66E+08
27181,44.345,-1.382,9.6145,1.18E+08
27182,46.661,-0.47045,9.1079,1.20E+08
27183,46.601,-0.94746,11.756,1.25E+08
27184,43.828,-1.2889,12.026,1.30E+08
27185,51.26,3.0163,9.8687,1.41E+08
27186,49.294,2.0602,11.812,1.60E+08
27187,48.677,0.2115,8.4076,1.12E+08
27188,48.617,-0.26551,11.055,1.16E+08
27189,50.987,0.41929,10.008,1.06E+08
27190,50.744,1.1844,7.6049,1.06E+08
27191,52.838,3.9468,13.895,1.59E+08
27192,54.254,4.924,12.252,1.43E+08
27193,51.202,2.9847,12.387,1.55E+08
27194,54.165,3.1187,8.4599,9.82E+07
27195,55.766,4.3727,8.0545,9.23E+07
27196,54.203,2.3946,12.382,1.10E+08
27197,55.604,3.6461,10.986,1.03E+08
27198,52.85,1.4279,10.583,1.00E+08
27199,52.607,2.193,8.1799,1.00E+08
27200,50.754,2.7493,17.789,1.86E+08
27201,54.021,4.7533,15.704,1.62E+08
27202,50.947,2.8493,15.838,1.75E+08
27203,52.068,1.2041,17.634,1.38E+08
27204,54.168,2.8189,18.197,1.44E+08
27205,53.96,2.2389,15.833,1.29E+08
27206,56.039,4.2401,16.727,1.33E+08
27207,46.722,1.1099,17.421,1.96E+08
27208,49.033,1.9488,16.281,1.86E+08
27209,47.653,-0.46442,18.182,1.56E+08
27210,50.187,0.24063,18.076,1.49E+08
27211,46.93,1.1749,15.471,1.84E+08
27212,45.514,-1.124,17.373,1.59E+08
27213,42.707,-1.0946,17.806,1.78E+08
27214,46.216,-1.0357,14.714,1.45E+08
27215,43.443,-1.3772,14.985,1.51E+08
27216,55.352,3.2476,14.19,1.12E+08
27217,57.432,5.2489,15.084,1.18E+08
27218,56.754,4.4992,12.794,1.07E+08
27219,47.854,-0.38023,16.232,1.44E+08
27220,50.388,0.32481,16.126,1.37E+08
27221,52.279,1.3596,14.325,1.28E+08
27222,48.556,-0.2919,13.574,1.30E+08
27223,50.926,0.39291,12.526,1.20E+08
27224,3.3625,32.375,-62.328,4.41E+06
27225,3.1998,34.921,-62.946,4.72E+06
27226,-2.448,-13.745,62.866,8.12E+07
27227,-4.0855,-13.615,64.095,6.89E+07
27228,-3.9921,-14.699,64.053,6.02E+07
27229,-3.3926,-15.012,63.843,6.59E+07
27230,-2.4129,-14.529,63.531,7.03E+07
27231,-4.8528,-8.5365,65.911,1.30E+08
27232,-3.6606,-8.2726,64.103,1.54E+08
27233,-4.3962,-6.8933,65.016,1.51E+08
27234,-4.2611,-9.4414,65.24,1.36E+08
27235,-64.294,-3.5167,63.631,5.11E+07
27236,-65.926,-2.1367,64.687,5.51E+07
27237,-63.928,-2.5426,62.028,6.83E+07
27238,-41.051,-2.3198,74.927,9.39E+07
27239,-44.698,-2.475,78.903,6.30E+07
27240,-56.211,-3.0529,-67.79,3.42E+05
27241,-58.275,-3.2929,-69.719,4.49E+05
27242,-73.163,-2.6369,-50.126,2.21E+06
27243,-74.594,-4.4789,-51.884,1.94E+06
27244,-75.335,-2.6352,-52.775,1.90E+06
27245,-62.994,-9.3951,62.123,6.07E+07
27246,-64.309,-8.2464,63.654,4.04E+07
27247,-64.943,-11.24,63.243,8.12E+07
27248,-73.055,-9.5608,-49.952,1.93E+06
27249,-74.575,-9.2086,-51.863,1.77E+06
27250,-76.232,-9.8197,-52.951,1.49E+06
27251,-54.218,-9.9377,-66.663,1.15E+06
27252,-57.461,-9.8591,-69.62,1.02E+06
27253,-55.2,-0.46481,47.289,1.33E+08
27254,-54.306,-2.1237,49.275,9.38E+07
27255,-56.05,-2.314,51.401,8.97E+07
27256,-52.392,-0.48714,42.928,1.43E+08
27257,-52.888,-2.1195,47.099,9.92E+07
27258,-51.876,-1.7038,44.682,1.11E+08
27259,-49.216,-0.49266,38.027,1.59E+08
27260,-49.44,-1.5201,40.187,1.26E+08
27261,-50.487,-1.7306,42.497,1.16E+08
27262,-45.488,-1.5122,34.957,1.49E+08
27263,-47.653,-1.4987,37.471,1.37E+08
27264,-47.05,-0.23572,35.731,1.81E+08
27265,-52.214,-0.4886,-25.844,1.42E+07
27266,-47.915,-1.9429,-23.656,1.80E+07
27267,-49.788,-1.5977,-25.129,1.12E+07
27268,-55.697,-0.48075,-29.59,1.49E+07
27269,-52.084,-2.6513,-28.37,1.19E+07
27270,-51.564,-1.595,-27.038,1.22E+07
27271,-53.993,-1.3581,-28.814,1.41E+07
27272,-59.088,-0.47644,-33.232,1.18E+07
27273,-57.176,-1.4312,-32.328,1.21E+07
27274,-55.7,-1.3529,-30.651,1.29E+07
27275,-62.558,-0.4726,-36.958,8.04E+06
27276,-58.727,-2.5269,-35.687,8.19E+06
27277,-60.704,-2.214,-37.149,7.74E+06
27278,-58.86,-1.4321,-34.133,1.02E+07
27279,-63.95,-1.7017,-41.28,4.82E+06
27280,-62.49,-2.2093,-39.07,5.91E+06
27281,-62.638,-12.036,-37.056,8.99E+06
27282,-63.98,-10.764,-40.263,5.68E+06
27283,-65.016,-11.15,-41.006,5.28E+06
27284,-59.147,-12.013,-33.281,1.50E+07
27285,-60.536,-9.9365,-37.433,8.75E+06
27286,-59.781,-10.805,-35.544,1.07E+07
27287,-62.221,-10.767,-38.383,8.25E+06
27288,-58.514,-10.951,-34.292,1.19E+07
27289,-55.206,-12.007,-29.047,2.11E+07
27290,-54.881,-10.751,-30.345,1.59E+07
27291,-56.782,-10.923,-32.398,1.53E+07
27292,-52.672,-10.772,-28.005,1.85E+07
27293,-51.318,-10.825,-27.444,1.56E+07
27294,-51.164,-12.037,-24.754,1.98E+07
27295,71.574,-11.782,4.7025,1.53E+08
27296,69.512,-12.757,5.6234,1.38E+08
27297,75.041,-8.1792,4.8114,1.55E+08
27298,73.252,-7.8605,6.2945,1.35E+08
27299,71.347,-10.937,5.7169,1.43E+08
27300,72.149,-9.2552,5.9194,1.39E+08
27301,78.396,-4.519,4.8127,1.48E+08
27302,74.888,-6.0822,6.3003,1.33E+08
27303,76.596,-5.2362,5.6578,1.40E+08
27304,81.769,-0.833,4.8089,1.37E+08
27305,78.357,-2.1504,6.5212,1.23E+08
27306,80.202,-0.55892,6.0936,1.23E+08
27307,78.315,-3.3543,5.6534,1.35E+08
27308,85.066,2.7621,4.8112,1.25E+08
27309,81.856,1.2451,6.0943,1.18E+08
27310,84.013,3.1488,5.7852,1.15E+08
27311,88.351,6.3417,4.8148,1.13E+08
27312,87.201,6.4822,5.6818,1.06E+08
27313,85.656,4.9398,5.7867,1.09E+08
27314,91.634,9.9184,4.8194,1.01E+08
27315,89.641,10.367,6.3834,8.89E+07
27316,88.843,8.2708,5.684,9.98E+07
27317,94.969,13.537,4.8351,8.81E+07
27318,91.283,12.155,6.3858,8.30E+07
27319,92.883,12.844,5.8316,8.52E+07
27320,94.827,15.754,6.9641,7.20E+07
27321,96.222,17.606,6.2668,6.98E+07
27322,94.576,14.674,5.845,7.82E+07
27323,71.634,-11.667,22.322,7.73E+07
27324,69.225,-12.973,21.114,7.20E+07
27325,70.464,-11.935,21.296,7.45E+07
27326,93.959,12.448,22.175,4.93E+07
27327,94.847,15.988,21.265,3.91E+07
27328,94.009,14.609,21.271,4.21E+07
27329,93.612,13.119,21.282,4.74E+07
27330,96.064,16.115,21.811,3.94E+07
27331,86.073,3.8183,22.158,6.47E+07
27332,90.908,9.1163,22.174,5.53E+07
27333,88.952,8.4156,21.345,5.41E+07
27334,87.118,6.9061,21.244,5.46E+07
27335,79.849,-2.9358,22.186,7.55E+07
27336,80.438,-0.52929,20.806,6.83E+07
27337,81.785,1.524,20.994,6.22E+07
27338,83.842,3.3463,21.256,6.08E+07
27339,75.211,-7.9381,22.226,8.07E+07
27340,77.49,-3.7234,20.822,7.29E+07
27341,75.252,-6.6534,21.336,7.62E+07
27342,76.242,-5.1855,20.824,7.51E+07
27343,73.563,-8.4616,21.359,7.68E+07
27344,72.354,-10.017,21.228,7.85E+07
27345,90.51,10.154,21.373,5.08E+07
27346,92.12,11.526,21.309,5.00E+07
27347,18.439,5.083,-59.59,1.54E+08
27348,19.018,7.2133,-60.993,7.90E+07
27349,19.638,13.553,-46.554,4.86E+07
27350,18.344,12.938,-43.731,1.36E+08
27351,19.313,13.957,-43.859,6.25E+07
27352,19.624,13.022,-51.712,8.22E+07
27353,18.17,11.601,-48.264,1.54E+08
27354,19.19,11.318,-50.549,1.57E+08
27355,19.206,13.14,-48.875,1.44E+08
27356,19.8,10.44,-53.677,1.71E+08
27357,19.165,11.075,-53.048,1.52E+08
27358,19.291,10.947,-55.266,1.31E+08
27359,64.879,15.265,4.7041,5.23E+07
27360,64.289,12.343,6.3524,4.93E+07
27361,62.344,11.615,5.495,5.60E+07
27362,69.444,20.448,4.8292,4.55E+07
27363,73.7,25.235,4.9541,3.87E+07
27364,72.055,20.672,6.5923,3.71E+07
27365,74.85,23.63,6.5795,3.31E+07
27366,73.669,21.996,6.7494,3.40E+07
27367,67.334,15.75,6.4833,4.51E+07
27368,69.12,17.441,6.5708,4.19E+07
27369,65.914,14.3,6.4466,4.73E+07
27370,76.176,25.181,6.6872,3.12E+07
27371,76.34,26.802,6.1323,3.34E+07
27372,-18.697,12.618,-43.581,8.61E+07
27373,-19.423,13.842,-43.765,4.35E+07
27374,-18.58,11.394,-52.947,1.40E+08
27375,-19.537,12.453,-54.734,9.17E+07
27376,-18.675,-7.6076,-59.016,9.33E+07
27377,-18.371,0.85303,-59.229,1.63E+08
27378,-18.217,3.1436,-59.393,1.70E+08
27379,-18.97,5.444,-60.633,1.39E+08
27380,4.3605,-9.3889,-31.702,6.46E+07
27381,6.3707,-5.8279,-31.359,6.26E+07
27382,7.2365,-8.1715,-31.171,7.27E+07
27383,3.0899,-9.175,-33.563,6.53E+07
27384,5.7833,-8.2243,-33.555,7.20E+07
27385,3.3124,-7.1192,-34.141,5.97E+07
27386,4.2957,-5.3898,-33.041,5.63E+07
27387,4.3605,-14.083,-31.702,9.38E+07
27388,7.2365,-10.519,-31.171,8.41E+07
27389,6.904,-12.728,-31.246,9.25E+07
27390,3.0899,-11.522,-33.563,7.69E+07
27391,5.7833,-10.572,-33.555,8.11E+07
27392,2.7799,-13.9,-33.783,8.96E+07
27393,4.6124,-12.682,-33.968,8.70E+07
27394,4.3605,-18.778,-31.702,1.34E+08
27395,6.904,-15.075,-31.246,1.12E+08
27396,6.6757,-17.42,-31.296,1.27E+08
27397,3.046,-18.778,-33.832,1.22E+08
27398,6.6938,-16.076,-33.449,1.08E+08
27399,2.7799,-16.247,-33.783,1.08E+08
27400,5.0895,-17.69,-33.849,1.14E+08
27401,4.6124,-15.029,-33.968,1.04E+08
27402,4.4777,-23.233,-31.685,1.68E+08
27403,6.6757,-19.767,-31.296,1.48E+08
27404,6.8069,-21.8,-31.268,1.63E+08
27405,3.046,-21.125,-33.832,1.43E+08
27406,5.2139,-21.953,-33.274,1.41E+08
27407,5.0895,-20.037,-33.849,1.34E+08
27408,4.7761,-27.491,-31.642,1.78E+08
27409,6.9225,-23.907,-31.242,1.76E+08
27410,7.0912,-25.863,-31.204,1.81E+08
27411,3.8022,-25.58,-33.234,1.53E+08
27412,5.3311,-24.061,-33.258,1.54E+08
27413,5.8387,-26.299,-32.931,1.49E+08
27414,5.1774,-31.879,-31.578,1.68E+08
27415,7.2697,-28.014,-31.163,1.79E+08
27416,7.4875,-30.313,-31.112,1.75E+08
27417,3.9833,-27.731,-33.207,1.52E+08
27418,3.9416,-30.333,-33.173,1.36E+08
27419,6.0198,-28.45,-32.904,1.47E+08
27420,6.2049,-30.524,-32.927,1.33E+08
27421,4.8707,-36.56,-31.627,1.48E+08
27422,8.0588,-35.434,-30.969,1.56E+08
27423,7.7042,-32.55,-31.059,1.67E+08
27424,4.1617,-32.57,-33.137,1.28E+08
27425,3.8964,-35.426,-33.109,1.10E+08
27426,6.7843,-35.204,-32.721,1.11E+08
27427,6.425,-32.761,-32.891,1.25E+08
27428,7.5413,-37.879,-31.099,1.43E+08
27429,3.369,-37.871,-33.19,9.80E+07
27430,2.0868,-39.759,-32.945,8.96E+07
27431,6.2569,-37.649,-32.802,9.89E+07
27432,3.4953,-40.576,-33.651,7.13E+07
27433,5.7142,-39.5,-32.667,9.25E+07
27434,4.7694,-37.852,31.643,2.68E+08
27435,-1.52E-15,-37.852,32,1.36E+08
27436,3.5829,-35.653,31.799,2.27E+08
27437,1.1965,-35.653,31.978,1.46E+08
27438,2.8805,-39.901,33.022,1.31E+08
27439,2.5732,-35.135,33.48,1.13E+08
27440,4.3322,-37.429,33.152,1.21E+08
27441,0.74247,-36.545,33.406,1.05E+08
27442,4.5322,-39.18,32.585,1.63E+08
27443,9.4322,-37.852,30.578,4.08E+08
27444,5.9492,-35.653,31.442,3.10E+08
27445,8.2822,-35.653,30.91,3.86E+08
27446,6.6968,-37.429,32.796,2.09E+08
27447,8.9238,-37.183,32.083,2.39E+08
27448,8.5779,-38.741,31.934,2.54E+08
27449,6.8969,-39.18,32.229,2.50E+08
27450,13.884,-37.852,28.831,4.76E+08
27451,10.569,-35.653,30.204,4.45E+08
27452,12.797,-35.653,29.33,4.86E+08
27453,11.209,-37.183,31.378,3.00E+08
27454,13.23,-36.968,30.498,3.20E+08
27455,10.863,-38.741,31.229,3.14E+08
27456,13.111,-38.764,30.442,3.20E+08
27457,18.026,-37.852,26.44,4.43E+08
27458,14.953,-35.653,28.292,4.98E+08
27459,17.025,-35.653,27.095,4.84E+08
27460,17.581,-36.935,28.453,3.21E+08
27461,15.384,-36.968,29.46,3.31E+08
27462,15.266,-38.764,29.405,3.31E+08
27463,17.412,-38.618,28.139,3.41E+08
27464,21.766,-37.852,23.458,3.19E+08
27465,19.002,-35.653,25.747,4.40E+08
27466,20.873,-35.653,24.255,3.67E+08
27467,21.129,-39.537,25.886,2.57E+08
27468,19.557,-36.935,27.106,2.74E+08
27469,21.432,-37,25.544,2.87E+08
27470,19.387,-38.618,26.792,2.93E+08
27471,25.019,-37.852,19.952,1.65E+08
27472,22.627,-35.653,22.627,2.88E+08
27473,24.255,-35.653,20.873,1.97E+08
27474,22.882,-39.537,24.259,1.75E+08
27475,24.551,-39.086,22.353,1.83E+08
27476,25.04,-36.529,22.168,2.05E+08
27477,23.185,-37,23.918,2.07E+08
27478,27.713,-37.852,16,8.91E+07
27479,25.747,-35.653,19.002,1.25E+08
27480,27.095,-35.653,17.025,9.09E+07
27481,26.042,-39.086,20.483,1.16E+08
27482,26.531,-36.529,20.298,1.40E+08
27483,28.297,-37.322,17.752,1.03E+08
27484,28.326,-38.941,17.489,9.28E+07
27485,27.317,-39.466,18.821,9.88E+07
27486,29.788,-37.852,11.691,1.25E+08
27487,28.292,-35.653,14.953,9.02E+07
27488,29.33,-35.653,12.797,1.08E+08
27489,30.342,-35.162,14.74,9.54E+07
27490,30.557,-38.764,13.137,6.33E+07
27491,29.493,-37.322,15.681,8.29E+07
27492,29.522,-38.941,15.418,7.66E+07
27493,31.198,-37.852,7.1207,1.53E+08
27494,30.204,-35.653,10.569,1.27E+08
27495,30.91,-35.653,8.2822,1.34E+08
27496,31.939,-35.304,9.8343,7.16E+07
27497,32.532,-36.858,7.7464,6.17E+07
27498,31.431,-38.764,10.911,8.16E+07
27499,32.429,-39.172,8.5439,6.40E+07
27500,31.911,-37.852,2.3914,1.65E+08
27501,31.442,-35.653,5.9492,1.42E+08
27502,31.799,-35.653,3.5829,1.44E+08
27503,33.409,-36.301,2.5428,7.32E+07
27504,33.064,-36.858,5.415,8.07E+07
27505,33.319,-39.179,3.9053,7.68E+07
27506,32.961,-39.172,6.2124,8.08E+07
27507,31.911,-37.852,-2.3914,1.66E+08
27508,31.978,-35.653,1.1965,1.49E+08
27509,31.978,-35.653,-1.1965,1.56E+08
27510,33.588,-36.301,0.15808,8.79E+07
27511,33.24,-39.402,-2.0332,9.41E+07
27512,33.498,-39.179,1.5207,8.83E+07
27513,31.198,-37.852,-7.1207,1.63E+08
27514,31.799,-35.653,-3.5829,1.55E+08
27515,31.442,-35.653,-5.9492,1.57E+08
27516,33.409,-36.301,-2.2266,9.62E+07
27517,33.062,-39.402,-4.4179,9.59E+07
27518,33.129,-34.964,-5.6225,9.68E+07
27519,32.747,-38.272,-6.3667,9.34E+07
27520,29.788,-37.852,-11.691,1.57E+08
27521,30.91,-35.653,-8.2822,1.60E+08
27522,30.204,-35.653,-10.569,1.57E+08
27523,31.374,-36.897,-11.108,1.04E+08
27524,32.215,-38.272,-8.6981,9.93E+07
27525,31.354,-38.851,-10.715,1.07E+08
27526,27.713,-37.852,-16,1.42E+08
27527,29.33,-35.653,-12.797,1.52E+08
27528,28.292,-35.653,-14.953,1.45E+08
27529,29.654,-37.005,-15.997,8.82E+07
27530,29.519,-38.738,-15.309,9.66E+07
27531,30.5,-36.897,-13.334,1.03E+08
27532,30.48,-38.851,-12.941,1.03E+08
27533,25.019,-37.852,-19.952,1.33E+08
27534,27.095,-35.653,-17.025,1.38E+08
27535,25.747,-35.653,-19.002,1.35E+08
27536,28.458,-37.005,-18.068,8.71E+07
27537,28.324,-38.738,-17.38,9.04E+07
27538,27.41,-38.745,-19.801,7.48E+07
27539,21.661,-37.649,-23.554,1.33E+08
27540,24.255,-35.653,-20.873,1.36E+08
27541,22.49,-35.367,-22.764,1.39E+08
27542,23.849,-36.739,-23.401,9.68E+07
27543,23.92,-39.081,-23.335,8.41E+07
27544,25.919,-38.745,-21.67,7.84E+07
27545,17.724,-37.32,-26.643,1.42E+08
27546,20.618,-35.164,-24.473,1.43E+08
27547,18.768,-35.1,-25.918,1.47E+08
27548,18.097,-36.148,-27.859,1.06E+08
27549,20.928,-34.731,-26.178,1.11E+08
27550,19.131,-38.489,-27.276,9.12E+07
27551,21.984,-36.536,-25.115,1.02E+08
27552,22.056,-38.878,-25.05,8.64E+07
27553,13.186,-36.973,-29.157,1.50E+08
27554,16.711,-34.974,-27.29,1.54E+08
27555,14.833,-34.719,-28.354,1.59E+08
27556,15.115,-38.508,-29.608,9.70E+07
27557,16.04,-36.022,-29.228,1.14E+08
27558,17.074,-38.362,-28.644,9.73E+07
27559,10.316,-33.869,-30.292,1.65E+08
27560,12.372,-34.499,-29.512,1.62E+08
27561,9.4164,-36.523,-32.036,1.09E+08
27562,10.513,-38.657,-31.567,9.71E+07
27563,11.651,-34.592,-31.475,1.19E+08
27564,12.639,-38.288,-30.728,1.00E+08
27565,13.564,-35.802,-30.348,1.17E+08
27566,8.8737,-38.374,-31.901,1.02E+08
27567,-10.095,-36.939,-30.366,1.45E+08
27568,-6.4787,-34.113,-31.337,1.40E+08
27569,-5.769,-35.728,-31.476,1.39E+08
27570,-9.462,-34.337,-30.569,1.43E+08
27571,-8.9384,-38.049,-32.029,9.20E+07
27572,-5.5158,-36.528,-33.085,8.90E+07
27573,-8.9348,-34.948,-32.107,1.05E+08
27574,-6.5018,-38.338,-32.527,9.08E+07
27575,-6.9949,-35.175,-32.779,9.95E+07
27576,-14.62,-37.455,-28.465,1.62E+08
27577,-11.954,-34.657,-29.683,1.54E+08
27578,-14.37,-34.996,-28.592,1.62E+08
27579,-11.446,-38.369,-31.195,1.00E+08
27580,-11.443,-35.268,-31.274,1.09E+08
27581,-13.638,-38.756,-30.27,1.04E+08
27582,-18.51,-37.699,-26.103,1.73E+08
27583,-16.359,-35.192,-27.502,1.68E+08
27584,-17.778,-35.888,-26.607,1.69E+08
27585,-15.654,-38.951,-29.235,1.09E+08
27586,-19.426,-37.058,-26.956,1.17E+08
27587,-17.991,-38.824,-28.077,1.07E+08
27588,-22.104,-37.608,-23.139,1.67E+08
27589,-19.632,-35.936,-25.27,1.72E+08
27590,-21.337,-35.39,-23.848,1.65E+08
27591,-22.591,-39.819,-25.538,8.25E+07
27592,-21.29,-37.106,-25.634,1.18E+08
27593,-19.855,-38.873,-26.755,1.09E+08
27594,-25.157,-37.66,-19.776,1.48E+08
27595,-23.047,-35.251,-22.199,1.54E+08
27596,-24.634,-35.235,-20.425,1.43E+08
27597,-25.523,-34.67,-21.839,1.10E+08
27598,-24.308,-39.679,-23.898,6.83E+07
27599,-23.006,-36.966,-23.995,1.05E+08
27600,-25.528,-39.024,-21.537,1.01E+08
27601,-27.713,-37.852,-16,1.29E+08
27602,-25.961,-35.427,-18.709,1.32E+08
27603,-27.207,-35.583,-16.845,1.24E+08
27604,-26.863,-34.862,-20.134,9.42E+07
27605,-28.736,-37.017,-16.815,9.79E+07
27606,-26.868,-39.216,-19.832,8.83E+07
27607,-29.788,-37.852,-11.691,1.07E+08
27608,-28.39,-35.583,-14.765,1.11E+08
27609,-29.33,-35.653,-12.797,1.04E+08
27610,-29.931,-37.017,-14.744,8.09E+07
27611,-30.51,-39.032,-13.688,7.84E+07
27612,-31.108,-36.809,-13.182,8.14E+07
27613,-31.198,-37.852,-7.1207,8.43E+07
27614,-30.204,-35.653,-10.569,9.10E+07
27615,-30.91,-35.653,-8.2822,8.06E+07
27616,-31.384,-39.032,-11.462,6.52E+07
27617,-31.83,-39.1,-9.5003,7.03E+07
27618,-31.981,-36.809,-10.956,6.87E+07
27619,-32.168,-36.952,-9.0383,7.03E+07
27620,-31.911,-37.852,-2.3914,7.66E+07
27621,-31.442,-35.653,-5.9492,6.94E+07
27622,-31.799,-35.653,-3.5829,6.65E+07
27623,-33.116,-39.389,-4.3575,5.86E+07
27624,-32.362,-39.1,-7.1689,6.06E+07
27625,-33.236,-36.739,-2.7492,6.65E+07
27626,-32.7,-36.952,-6.7069,6.18E+07
27627,-31.911,-37.852,2.3914,1.02E+08
27628,-31.978,-35.653,-1.1965,7.21E+07
27629,-31.978,-35.653,1.1965,8.75E+07
27630,-33.295,-39.389,-1.9728,6.35E+07
27631,-33.224,-37.054,1.8356,7.18E+07
27632,-33.632,-38.788,1.3214,6.30E+07
27633,-33.415,-36.739,-0.36454,7.24E+07
27634,-31.198,-37.852,7.1207,1.43E+08
27635,-31.799,-35.653,3.5829,1.09E+08
27636,-31.442,-35.653,5.9492,1.30E+08
27637,-33.046,-37.054,4.2203,9.10E+07
27638,-33.454,-38.788,3.706,8.16E+07
27639,-32.821,-37.656,6.2673,8.64E+07
27640,-32.744,-39.147,5.323,8.79E+07
27641,-29.788,-37.852,11.691,1.79E+08
27642,-30.91,-35.653,8.2822,1.53E+08
27643,-30.204,-35.653,10.569,1.66E+08
27644,-31.091,-36.863,12.294,1.06E+08
27645,-31.927,-36.155,10.086,1.13E+08
27646,-32.289,-37.656,8.5988,1.10E+08
27647,-32.212,-39.147,7.6544,1.11E+08
27648,-30.959,-38.623,11.826,1.14E+08
27649,-31.257,-39.47,10.516,1.22E+08
27650,-27.713,-37.852,16,2.05E+08
27651,-29.33,-35.653,12.797,1.83E+08
27652,-28.292,-35.653,14.953,1.88E+08
27653,-30.217,-36.863,14.52,1.28E+08
27654,-29.006,-39.214,16.055,1.33E+08
27655,-28.885,-37.134,16.713,1.26E+08
27656,-30.086,-38.623,14.052,1.34E+08
27657,-30.383,-39.47,12.743,1.40E+08
27658,-25.019,-37.852,19.952,2.24E+08
27659,-27.095,-35.653,17.025,2.01E+08
27660,-25.747,-35.653,19.002,2.07E+08
27661,-27.81,-39.214,18.126,1.48E+08
27662,-26.198,-39.098,20.304,1.48E+08
27663,-27.69,-37.134,18.784,1.44E+08
27664,-21.766,-37.852,23.458,2.47E+08
27665,-24.255,-35.653,20.873,2.16E+08
27666,-22.627,-35.653,22.627,2.27E+08
27667,-24.726,-36.368,22.742,1.53E+08
27668,-24.707,-39.098,22.174,1.58E+08
27669,-26.199,-37.134,20.653,1.57E+08
27670,-23.53,-38.419,23.707,1.47E+08
27671,-18.026,-37.852,26.44,2.67E+08
27672,-20.873,-35.653,24.255,2.46E+08
27673,-19.002,-35.653,25.747,2.65E+08
27674,-20.964,-36.191,26.337,1.66E+08
27675,-18.416,-39.176,27.538,1.69E+08
27676,-21.777,-38.419,25.334,1.68E+08
27677,-21.274,-39.243,26.43,1.30E+08
27678,-13.884,-37.852,28.831,2.64E+08
27679,-17.025,-35.653,27.095,2.68E+08
27680,-14.953,-35.653,28.292,2.70E+08
27681,-18.988,-36.191,27.684,1.71E+08
27682,-16.44,-39.176,28.885,1.70E+08
27683,-15.744,-36.571,29.615,1.58E+08
27684,-9.4322,-37.852,30.578,2.31E+08
27685,-12.797,-35.653,29.33,2.68E+08
27686,-10.569,-35.653,30.204,2.60E+08
27687,-14.286,-39.176,29.923,1.66E+08
27688,-11.784,-35.54,31.311,1.63E+08
27689,-13.589,-36.571,30.653,1.58E+08
27690,-10.39,-36.821,31.424,1.67E+08
27691,-10.19,-39.288,31.161,1.75E+08
27692,-4.7694,-37.852,31.643,1.53E+08
27693,-8.2822,-35.653,30.91,2.28E+08
27694,-5.9492,-35.653,31.442,1.79E+08
27695,-6.2435,-37.16,33.4,7.33E+07
27696,-8.1051,-36.821,32.129,1.35E+08
27697,-7.9048,-39.288,31.866,1.40E+08
27698,-1.1965,-35.653,31.978,1.11E+08
27699,-3.5829,-35.653,31.799,1.32E+08
27700,-3.8788,-37.16,33.757,3.81E+07
27701,-1.6489,-36.545,33.406,5.25E+07
27702,-9.0758,-4.9151,-30.686,1.17E+08
27703,-5.385,-6.5846,-31.544,8.30E+07
27704,-8.0903,-7.5849,-30.96,1.26E+08
27705,-7.0965,-6.4774,-33.261,7.08E+07
27706,-8.3161,-4.4775,-32.533,7.77E+07
27707,-5.7753,-4.4841,-33.311,5.48E+07
27708,-14.017,-4.7193,-28.767,1.45E+08
27709,-10.625,-7.7158,-30.184,1.60E+08
27710,-12.893,-7.3207,-29.288,1.78E+08
27711,-13.631,-5.4096,-31.478,1.50E+08
27712,-10.856,-4.6084,-31.782,1.05E+08
27713,-11.938,-6.7485,-31.886,1.27E+08
27714,-14.437,-4.0251,-30.266,1.54E+08
27715,-18.41,-4.3926,-26.174,1.44E+08
27716,-15.275,-6.994,-28.119,1.75E+08
27717,-17.394,-6.589,-26.86,1.65E+08
27718,-19.06,-4.7245,-28.143,1.69E+08
27719,-16.015,-5.0829,-30.316,1.59E+08
27720,-17.895,-6.1422,-29.405,1.77E+08
27721,-16.82,-3.6984,-29.104,1.64E+08
27722,-22.19,-4.3926,-23.057,1.58E+08
27723,-19.399,-6.589,-25.449,1.58E+08
27724,-21.29,-6.589,-23.89,1.56E+08
27725,-22.987,-4.7535,-24.922,1.57E+08
27726,-21.064,-4.7245,-26.734,1.79E+08
27727,-25.449,-4.3926,-19.399,1.52E+08
27728,-23.057,-6.589,-22.19,1.57E+08
27729,-24.688,-6.589,-20.36,1.57E+08
27730,-24.752,-4.7535,-23.223,1.65E+08
27731,-26.297,-3.9473,-21.753,1.49E+08
27732,-25.709,-6.6395,-21.741,1.58E+08
27733,-28.112,-4.3926,-15.287,1.12E+08
27734,-26.174,-6.589,-18.41,1.43E+08
27735,-27.506,-6.589,-16.353,1.25E+08
27736,-27.782,-3.9473,-19.805,1.38E+08
27737,-29.403,-3.8098,-17.129,1.17E+08
27738,-28.872,-5.8155,-18.011,1.30E+08
27739,-27.194,-6.6395,-19.793,1.46E+08
27740,-30.116,-4.3926,-10.817,5.41E+07
27741,-28.677,-6.589,-14.199,1.00E+08
27742,-29.68,-6.589,-11.962,7.69E+07
27743,-30.573,-3.8098,-14.977,9.03E+07
27744,-31.441,-3.9234,-12.499,7.43E+07
27745,-31.24,-5.8334,-13.519,9.38E+07
27746,-30.042,-5.8155,-15.859,1.04E+08
27747,-31.415,-4.3926,-6.0925,7.24E+07
27748,-30.509,-6.589,-9.6551,5.83E+07
27749,-31.158,-6.589,-7.2913,6.85E+07
27750,-32.269,-3.9234,-10.194,3.92E+07
27751,-33.422,-3.5519,-7.5178,3.88E+07
27752,-33.313,-5.9004,-6.3045,8.10E+07
27753,-32.068,-5.8334,-11.214,6.21E+07
27754,-32.929,-5.7816,-9.0456,6.42E+07
27755,-31.977,-4.3926,-1.2257,1.20E+08
27756,-31.625,-6.589,-4.8848,9.65E+07
27757,-31.906,-6.589,-2.4496,1.13E+08
27758,-33.889,-3.5519,-5.1131,5.77E+07
27759,-33.78,-5.9004,-3.8997,9.58E+07
27760,-33.481,-4.1055,-2.4787,1.00E+08
27761,-31.789,-4.3926,3.6699,1.23E+08
27762,-32,-6.589,-8.65E-14,1.24E+08
27763,-31.906,-6.589,2.4496,1.21E+08
27764,-33.574,-4.1055,-3.10E-02,1.13E+08
27765,-33.691,-3.3398,2.148,1.47E+08
27766,-33.349,-5.3263,2.4285,1.52E+08
27767,-30.856,-4.3926,8.4794,1.05E+08
27768,-31.625,-6.589,4.8848,1.18E+08
27769,-31.158,-6.589,7.2913,1.18E+08
27770,-33.41,-3.3398,4.5814,1.36E+08
27771,-33.064,-3.2696,6.8608,1.68E+08
27772,-32.835,-6.9686,6.4052,1.61E+08
27773,-33.027,-5.2471,7.4749,1.70E+08
27774,-33.068,-5.3263,4.8619,1.46E+08
27775,-29.2,-4.3926,13.09,1.09E+08
27776,-30.509,-6.589,9.6551,1.12E+08
27777,-29.68,-6.589,11.962,1.07E+08
27778,-32.414,-3.2696,9.2228,1.56E+08
27779,-32.566,-3.3129,11.562,1.85E+08
27780,-32.378,-5.2471,9.8369,1.60E+08
27781,-31.239,-4.8058,12.062,1.32E+08
27782,-26.86,-4.3926,17.394,1.48E+08
27783,-28.677,-6.589,14.199,1.14E+08
27784,-27.506,-6.589,16.353,1.36E+08
27785,-29.787,-6.0427,16.363,1.47E+08
27786,-29.035,-4.2778,17.877,1.51E+08
27787,-30.237,-4.8058,14.298,1.49E+08
27788,-20.36,-4.3926,24.688,1.81E+08
27789,-23.89,-4.3926,21.29,1.80E+08
27790,-23.057,-6.589,22.19,1.81E+08
27791,-21.29,-6.589,23.89,1.81E+08
27792,-24.471,-3.7897,23.462,1.83E+08
27793,-22.584,-3.6305,25.276,1.94E+08
27794,-23.582,-5.8918,24.432,1.88E+08
27795,-24.879,-6.2177,22.508,1.75E+08
27796,-22.107,-5.3546,25.84,1.99E+08
27797,-16.353,-4.3926,27.506,1.45E+08
27798,-19.399,-6.589,25.449,1.75E+08
27799,-17.394,-6.589,26.86,1.57E+08
27800,-20.694,-3.6305,26.834,1.82E+08
27801,-18.605,-3.7483,28.597,2.03E+08
27802,-20.218,-5.3546,27.398,1.88E+08
27803,-18.67,-5.5821,28.024,1.94E+08
27804,-11.962,-4.3926,29.68,1.22E+08
27805,-15.287,-6.589,28.112,1.50E+08
27806,-13.09,-6.589,29.2,1.61E+08
27807,-16.499,-3.7483,29.849,1.73E+08
27808,-13.706,-3.688,31.267,2.11E+08
27809,-14.755,-5.4655,30.611,1.99E+08
27810,-16.564,-5.5821,29.276,1.73E+08
27811,-7.2913,-4.3926,31.158,1.80E+08
27812,-10.817,-6.589,30.116,1.98E+08
27813,-8.4794,-6.589,30.856,2.21E+08
27814,-11.434,-3.688,32.183,1.96E+08
27815,-8.9962,-4.9643,32.843,1.77E+08
27816,-12.483,-5.4655,31.527,1.99E+08
27817,-10.676,-6.5244,32.208,2.13E+08
27818,-2.4496,-4.3926,31.906,2.10E+08
27819,-6.0925,-6.589,31.415,2.46E+08
27820,-3.6699,-6.589,31.789,2.25E+08
27821,-6.611,-4.9643,33.401,1.96E+08
27822,-3.8143,-3.7023,33.682,1.57E+08
27823,-4.5298,-6.0459,34.445,1.76E+08
27824,2.4496,-4.3926,31.906,2.10E+08
27825,-1.2257,-6.589,31.977,2.25E+08
27826,1.2257,-6.589,31.977,1.87E+08
27827,-1.3719,-3.7023,33.87,1.63E+08
27828,1.3717,-3.7022,33.867,1.90E+08
27829,2.3917,-6.019,33.531,1.74E+08
27830,4.78E-02,-5.8554,33.997,1.73E+08
27831,7.2913,-4.3926,31.158,2.04E+08
27832,3.6699,-6.589,31.789,1.87E+08
27833,6.0925,-6.589,31.415,1.43E+08
27834,3.8141,-3.7022,33.68,1.93E+08
27835,6.2907,-4.2158,33.238,2.20E+08
27836,4.8341,-6.019,33.344,1.73E+08
27837,11.962,-4.3926,29.68,2.04E+08
27838,8.4794,-6.589,30.856,1.39E+08
27839,10.817,-6.589,30.116,1.13E+08
27840,8.6758,-4.2158,32.679,2.18E+08
27841,11.387,-5.019,32.631,2.71E+08
27842,13.066,-4.2148,31.205,3.52E+08
27843,9.6041,-7.0559,32.304,1.61E+08
27844,16.353,-4.3926,27.506,2.57E+08
27845,13.09,-6.589,29.2,1.24E+08
27846,15.287,-6.589,28.112,1.45E+08
27847,15.338,-4.2148,30.29,3.71E+08
27848,15.248,-6.9612,30.309,2.69E+08
27849,16.735,-5.7254,29.192,3.32E+08
27850,20.36,-4.3926,24.688,3.28E+08
27851,17.394,-6.589,26.86,1.92E+08
27852,19.399,-6.589,25.449,2.51E+08
27853,17.444,-4.2148,29.038,4.14E+08
27854,19.963,-3.9352,27.199,4.37E+08
27855,18.84,-5.7254,27.94,3.78E+08
27856,20.863,-5.3769,26.208,3.65E+08
27857,23.89,-4.3926,21.29,3.31E+08
27858,21.29,-6.589,23.89,2.79E+08
27859,23.057,-6.589,22.19,3.04E+08
27860,21.853,-3.9352,25.641,4.59E+08
27861,25.157,-3.6418,23.253,3.62E+08
27862,24.681,-5.5564,22.951,3.24E+08
27863,22.753,-5.3769,24.649,3.89E+08
27864,26.86,-4.3926,17.394,2.52E+08
27865,24.688,-6.589,20.36,2.81E+08
27866,26.174,-6.589,18.41,2.59E+08
27867,27.825,-4.5128,19.126,2.56E+08
27868,26.786,-3.6418,21.425,3.29E+08
27869,26.311,-5.5564,21.122,2.95E+08
27870,29.2,-4.3926,13.09,1.45E+08
27871,27.506,-6.589,16.353,2.04E+08
27872,28.677,-6.589,14.199,1.61E+08
27873,30.513,-3.7047,15.021,1.63E+08
27874,29.156,-4.5128,17.07,1.94E+08
27875,29.78,-7.1011,16.103,1.53E+08
27876,30.318,-5.4145,14.335,1.47E+08
27877,30.856,-4.3926,8.4794,8.76E+07
27878,29.68,-6.589,11.962,1.14E+08
27879,30.509,-6.589,9.6551,9.43E+07
27880,31.515,-3.7047,12.786,1.04E+08
27881,32.286,-4.9136,10.306,7.67E+07
27882,31.32,-5.4145,12.099,9.40E+07
27883,31.789,-4.3926,3.6699,1.13E+08
27884,31.158,-6.589,7.2913,9.50E+07
27885,31.625,-6.589,4.8848,1.15E+08
27886,33.416,-5.6767,3.8812,1.02E+08
27887,33.358,-7.0972,6.3918,8.88E+07
27888,32.935,-4.9136,7.9436,7.15E+07
27889,33.487,-2.7943,5.1055,9.26E+07
27890,34.035,-4.036,6.8049,6.19E+07
27891,31.977,-4.3926,-1.2257,1.23E+08
27892,31.906,-6.589,2.4496,1.32E+08
27893,32,-6.589,9.04E-14,1.37E+08
27894,34.799,-2.956,-0.45353,8.77E+07
27895,33.697,-5.6767,1.4478,1.17E+08
27896,33.768,-2.7943,2.6721,1.05E+08
27897,31.415,-4.3926,-6.0925,1.12E+08
27898,31.906,-6.589,-2.4496,1.30E+08
27899,31.625,-6.589,-4.8848,1.32E+08
27900,34.062,-3.7676,-5.0913,8.29E+07
27901,34.706,-2.956,-2.9013,8.94E+07
27902,33.957,-5.654,-3.6606,9.51E+07
27903,30.116,-4.3926,-10.817,1.03E+08
27904,31.158,-6.589,-7.2913,1.29E+08
27905,30.509,-6.589,-9.6551,1.28E+08
27906,31.702,-4.1547,-10.223,8.71E+07
27907,33.596,-3.7676,-7.4961,9.44E+07
27908,33.306,-6.3605,-9.1243,1.05E+08
27909,28.112,-4.3926,-15.287,1.06E+08
27910,29.68,-6.589,-11.962,1.23E+08
27911,28.677,-6.589,-14.199,1.24E+08
27912,30.384,-3.7032,-15.128,9.57E+07
27913,30.874,-4.1547,-12.528,9.49E+07
27914,31.377,-5.8702,-13.621,1.07E+08
27915,29.726,-5.5062,-15.861,1.02E+08
27916,25.449,-4.3926,-19.399,1.23E+08
27917,27.506,-6.589,-16.353,1.27E+08
27918,26.174,-6.589,-18.41,1.33E+08
27919,27.393,-4.4766,-19.671,1.16E+08
27920,29.214,-3.7032,-17.28,1.11E+08
27921,28.556,-5.5062,-18.013,1.16E+08
27922,28.061,-3.408,-18.317,1.10E+08
27923,22.42,-4.5638,-22.833,1.37E+08
27924,24.688,-6.589,-20.36,1.39E+08
27925,23.47,-6.3546,-21.752,1.44E+08
27926,24.278,-3.8117,-23.661,1.32E+08
27927,25.908,-4.4766,-21.619,1.26E+08
27928,24.816,-6.4105,-23.328,1.30E+08
27929,19.115,-5.1129,-25.664,1.38E+08
27930,21.971,-6.5257,-23.266,1.48E+08
27931,20.635,-7.3188,-24.458,1.49E+08
27932,20.88,-4.1862,-26.714,1.42E+08
27933,22.759,-3.9829,-25.153,1.35E+08
27934,21.193,-6.1833,-25.979,1.38E+08
27935,23.297,-6.5817,-24.819,1.33E+08
27936,15.03,-5.2472,-28.251,1.16E+08
27937,18.886,-7.6967,-25.832,1.47E+08
27938,16.637,-7.5646,-27.335,1.38E+08
27939,17.037,-4.4931,-29.27,1.35E+08
27940,19.097,-4.5641,-28.042,1.35E+08
27941,19.41,-6.5612,-27.307,1.33E+08
27942,17.656,-6.8128,-28.772,1.31E+08
27943,10.542,-4.8089,-30.214,8.24E+07
27944,11.374,-7.1525,-29.91,9.75E+07
27945,14.35,-7.3211,-28.602,1.21E+08
27946,12.855,-4.0123,-30.819,1.05E+08
27947,14.732,-4.2496,-30.496,1.19E+08
27948,13.706,-6.5747,-31.334,1.08E+08
27949,11.749,-5.4344,-31.697,9.72E+07
27950,15.351,-6.5693,-29.999,1.14E+08
27951,9.2071,-6.9577,-30.647,8.05E+07
27952,7.8225,-4.4084,-33.694,7.32E+07
27953,10.695,-3.8175,-31.572,9.18E+07
27954,7.7806,-7.0105,-33.149,7.59E+07
27955,9.5891,-5.2397,-32.45,8.35E+07
27956,6.293,-4.176,-32.635,5.93E+07
27957,-26.174,-6.589,18.41,1.54E+08
27958,-24.688,-6.589,20.36,1.74E+08
27959,-27.703,-4.2778,19.933,1.74E+08
27960,-26.101,-3.7897,21.633,1.78E+08
27961,-26.509,-6.2177,20.679,1.70E+08
27962,-4.5807,-10.533,-31.67,9.26E+07
27963,-6.9828,-9.3853,-31.229,1.18E+08
27964,-5.9734,-8.2778,-33.453,6.83E+07
27965,-4.6522,-6.2846,-33.502,5.22E+07
27966,-3.4105,-8.4813,-33.971,6.13E+07
27967,-5.1501,-15.102,-31.583,1.28E+08
27968,-7.3,-11.533,-31.156,1.37E+08
27969,-7.4085,-14.5,-31.131,1.47E+08
27970,-6.2954,-10.426,-33.406,8.56E+07
27971,-4.225,-13.486,-33.516,9.68E+07
27972,-6.7019,-13.864,-33.575,1.00E+08
27973,-3.7325,-10.629,-33.925,7.79E+07
27974,-5.9737,-12.581,-35.062,8.50E+07
27975,-7.16,-12.258,-32.929,1.04E+08
27976,-5.0153,-19.667,-31.605,1.55E+08
27977,-7.6522,-16.921,-31.072,1.65E+08
27978,-7.558,-19.719,-31.095,1.59E+08
27979,-7.4457,-19.214,-32.983,1.33E+08
27980,-4.4771,-18.457,-33.77,1.30E+08
27981,-4.4724,-15.907,-33.476,1.16E+08
27982,-6.9493,-16.285,-33.534,1.20E+08
27983,-4.7274,-24.146,-31.649,1.63E+08
27984,-7.1811,-21.863,-31.184,1.67E+08
27985,-7.0632,-21.358,-33.044,1.43E+08
27986,-4.0946,-20.601,-33.831,1.40E+08
27987,-4.0455,-22.872,-33.793,1.42E+08
27988,-5.959,-23.748,-32.917,1.42E+08
27989,-5.1101,-29.044,-31.589,1.53E+08
27990,-7.2746,-24.198,-31.162,1.67E+08
27991,-7.1838,-26.969,-31.183,1.55E+08
27992,-4.1405,-25.207,-33.779,1.43E+08
27993,-3.9911,-28.26,-33.231,1.29E+08
27994,-6.0539,-26.082,-32.903,1.43E+08
27995,-4.6834,-33.222,-31.655,1.44E+08
27996,-8.4054,-31.831,-30.876,1.42E+08
27997,-7.4673,-29.532,-31.117,1.47E+08
27998,-4.2786,-30.823,-33.184,1.18E+08
27999,-6.3415,-28.645,-32.856,1.32E+08
28000,-7.8573,-32.442,-32.33,1.10E+08
28001,-5.9174,-32.669,-33.002,1.05E+08
28002,-3.5634,-32.438,-33.29,1.17E+08
28003,-3.7232,-35.638,-33.414,9.43E+07
28004,-4.7091,-37.448,-32.856,9.29E+07
28005,-5.2022,-34.284,-33.108,1.04E+08
28006,9.7279,-11.511,-30.486,1.04E+08
28007,13.083,-9.4699,-29.203,1.18E+08
28008,12.283,-11.061,-29.549,1.18E+08
28009,12.395,-8.7235,-31.832,1.05E+08
28010,8.6291,-9.3541,-32.894,8.85E+07
28011,10.438,-7.5833,-32.195,9.43E+07
28012,11.317,-10.666,-32.169,1.01E+08
28013,9.1789,-16.064,-30.655,1.27E+08
28014,11.967,-13.27,-29.678,1.26E+08
28015,11.034,-15.002,-30.038,1.29E+08
28016,9.2148,-14.72,-32.892,1.09E+08
28017,8.3043,-11.563,-32.998,9.60E+07
28018,10.786,-14.999,-31.875,1.14E+08
28019,10.992,-12.875,-32.273,1.08E+08
28020,7.1334,-13.674,-33.411,1.03E+08
28021,9.0837,-20.442,-30.684,1.59E+08
28022,10.814,-17.346,-30.117,1.44E+08
28023,11.211,-19.071,-29.972,1.55E+08
28024,7.5111,-20.595,-32.784,1.36E+08
28025,10.438,-19.314,-32.515,1.31E+08
28026,8.991,-17.065,-32.959,1.23E+08
28027,10.562,-17.343,-31.942,1.28E+08
28028,7.3867,-18.679,-33.359,1.29E+08
28029,9.3777,-24.43,-30.595,1.79E+08
28030,11.337,-21.104,-29.925,1.70E+08
28031,11.64,-23.164,-29.808,1.80E+08
28032,7.6398,-22.628,-32.746,1.51E+08
28033,10.566,-21.347,-32.477,1.46E+08
28034,8.1474,-24.866,-32.419,1.46E+08
28035,11.112,-23.412,-31.323,1.57E+08
28036,9.7563,-28.685,-30.476,1.80E+08
28037,11.801,-25.119,-29.744,1.86E+08
28038,11.294,-27.192,-29.941,1.84E+08
28039,8.3127,-26.822,-32.369,1.51E+08
28040,11.277,-25.367,-31.273,1.62E+08
28041,10.485,-27.438,-31.986,1.43E+08
28042,12.033,-31.615,-29.651,1.72E+08
28043,11.503,-29.491,-29.861,1.80E+08
28044,9.0701,-33.639,-32.154,1.20E+08
28045,8.5258,-29.121,-32.301,1.47E+08
28046,11.304,-31.708,-31.593,1.29E+08
28047,8.7109,-31.195,-32.324,1.33E+08
28048,10.699,-29.738,-31.918,1.39E+08
28049,2.3914,-33.454,31.911,1.76E+08
28050,7.1207,-33.454,31.198,3.41E+08
28051,6.1294,-31.072,31.407,2.96E+08
28052,3.7955,-31.042,31.774,2.19E+08
28053,3.7622,-32.936,33.346,1.58E+08
28054,5.5212,-35.23,33.018,1.64E+08
28055,6.2059,-32.949,32.856,1.81E+08
28056,7.7482,-34.984,32.306,1.94E+08
28057,-2.3914,-33.454,31.911,1.06E+08
28058,1.4104,-31.042,31.969,1.35E+08
28059,-0.97756,-31.036,31.985,9.42E+07
28060,-0.49593,-32.354,33.483,5.39E+07
28061,1.3775,-32.936,33.525,6.25E+07
28062,-0.45322,-34.346,33.451,5.46E+07
28063,11.691,-33.454,29.788,4.60E+08
28064,8.4594,-31.072,30.862,3.76E+08
28065,10.771,-31.042,30.133,4.54E+08
28066,8.5373,-32.949,32.324,2.64E+08
28067,10.08,-34.984,31.774,2.76E+08
28068,11.049,-32.732,31.66,2.74E+08
28069,12.1,-34.769,30.893,2.96E+08
28070,16,-33.454,27.713,4.90E+08
28071,12.992,-31.042,29.244,4.97E+08
28072,15.146,-31.036,28.189,5.12E+08
28073,15.226,-30.713,30.246,3.14E+08
28074,15.825,-32.898,29.651,3.26E+08
28075,16.523,-34.736,29.012,3.30E+08
28076,13.275,-32.732,30.786,3.19E+08
28077,14.326,-34.769,30.02,3.39E+08
28078,19.952,-33.454,25.019,4.08E+08
28079,17.21,-31.036,26.978,5.01E+08
28080,19.179,-31.036,25.616,4.53E+08
28081,19.51,-32.479,27.01,3.61E+08
28082,17.896,-32.898,28.456,3.16E+08
28083,18.594,-34.736,27.816,3.18E+08
28084,20.47,-34.801,26.255,3.31E+08
28085,23.458,-33.454,21.766,2.52E+08
28086,21.039,-31.036,24.111,3.83E+08
28087,22.782,-31.035,22.471,3.03E+08
28088,21.38,-32.479,25.519,2.94E+08
28089,24.194,-34.33,23.014,2.62E+08
28090,23.096,-32.625,24.282,2.95E+08
28091,22.339,-34.801,24.764,2.64E+08
28092,26.44,-33.454,18.026,1.23E+08
28093,24.398,-31.035,20.706,2.22E+08
28094,25.877,-31.035,18.825,1.70E+08
28095,26.689,-32.396,20.187,1.98E+08
28096,25.821,-34.33,21.261,1.80E+08
28097,24.722,-32.625,22.529,2.17E+08
28098,27.587,-35.123,18.714,1.44E+08
28099,28.831,-33.454,13.884,1.06E+08
28100,27.212,-31.035,16.838,1.47E+08
28101,28.394,-31.035,14.758,1.35E+08
28102,29.783,-32.963,15.798,1.21E+08
28103,28.036,-32.396,18.211,1.58E+08
28104,28.934,-35.123,16.739,1.00E+08
28105,30.578,-33.454,9.4322,1.23E+08
28106,29.417,-31.035,12.595,1.39E+08
28107,30.276,-31.035,10.361,1.30E+08
28108,30.821,-32.963,13.643,1.13E+08
28109,31.543,-33.105,10.964,8.16E+07
28110,31.643,-33.454,4.7694,1.30E+08
28111,30.966,-31.035,8.0695,1.34E+08
28112,31.482,-31.035,5.7329,1.29E+08
28113,32.248,-33.105,8.6785,8.83E+07
28114,32.881,-32.123,6.5877,8.97E+07
28115,32.841,-34.659,6.5907,7.35E+07
28116,32,-33.454,4.78E-14,1.39E+08
28117,31.823,-31.035,3.3642,1.33E+08
28118,31.985,-31.035,0.97665,1.40E+08
28119,33.543,-34.102,1.3538,8.10E+07
28120,33.237,-32.123,4.2231,1.04E+08
28121,33.198,-34.659,4.226,8.70E+07
28122,33.664,-31.224,1.946,1.04E+08
28123,33.319,-32.247,0.18436,9.46E+07
28124,31.643,-33.454,-4.7694,1.50E+08
28125,31.969,-31.035,-1.4163,1.50E+08
28126,31.773,-31.035,-3.8014,1.56E+08
28127,33.543,-34.102,-1.0376,9.73E+07
28128,33.319,-32.247,-2.207,1.11E+08
28129,33.263,-32.765,-4.4335,9.89E+07
28130,30.578,-33.454,-9.4322,1.52E+08
28131,31.4,-31.035,-6.1652,1.62E+08
28132,30.852,-31.035,-8.4945,1.59E+08
28133,32.143,-31.994,-8.9704,1.13E+08
28134,32.907,-32.765,-6.7982,1.09E+08
28135,31.684,-34.698,-9.952,1.03E+08
28136,32.525,-36.073,-7.5424,9.68E+07
28137,28.831,-33.454,-13.884,1.45E+08
28138,30.131,-31.035,-10.776,1.59E+08
28139,29.241,-31.035,-12.998,1.47E+08
28140,30.713,-32.765,-13.9,1.01E+08
28141,31.438,-31.994,-11.256,1.16E+08
28142,30.979,-34.698,-12.237,1.05E+08
28143,26.44,-33.454,-18.026,1.37E+08
28144,28.188,-31.035,-15.147,1.44E+08
28145,26.961,-30.948,-17.237,1.41E+08
28146,28.291,-32.547,-17.936,1.05E+08
28147,29.095,-34.806,-17.054,9.06E+07
28148,29.675,-32.765,-16.054,1.02E+08
28149,29.941,-34.698,-14.392,1.02E+08
28150,23.326,-33.168,-21.907,1.41E+08
28151,25.597,-30.948,-19.203,1.43E+08
28152,24.126,-30.867,-21.023,1.47E+08
28153,26.944,-32.547,-19.912,1.10E+08
28154,27.748,-34.806,-19.03,9.44E+07
28155,25.536,-32.573,-21.776,1.08E+08
28156,24.629,-34.54,-22.494,9.94E+07
28157,19.684,-32.818,-25.23,1.53E+08
28158,22.349,-30.581,-22.902,1.55E+08
28159,20.603,-30.673,-24.485,1.61E+08
28160,22.908,-29.958,-24.486,1.33E+08
28161,23.767,-32.287,-23.659,1.18E+08
28162,21.803,-32.448,-25.44,1.17E+08
28163,22.86,-34.254,-24.377,1.08E+08
28164,15.947,-32.5,-27.743,1.64E+08
28165,18.753,-30.609,-25.929,1.67E+08
28166,17.028,-30.505,-27.094,1.71E+08
28167,16.885,-30.725,-28.895,1.34E+08
28168,18.891,-30.023,-28.025,1.34E+08
28169,17.123,-33.803,-28.564,1.19E+08
28170,19.954,-32.385,-26.883,1.24E+08
28171,13.526,-30.122,-29.001,1.78E+08
28172,15.163,-30.25,-28.18,1.77E+08
28173,15.015,-30.471,-29.97,1.40E+08
28174,13.34,-32.339,-30.766,1.26E+08
28175,15.253,-33.548,-29.639,1.25E+08
28176,-13.774,-32.394,-28.884,1.57E+08
28177,-10.425,-29.757,-30.254,1.50E+08
28178,-13.642,-29.49,-28.946,1.67E+08
28179,-12.975,-29.927,-30.999,1.18E+08
28180,-10.826,-32.666,-31.522,1.09E+08
28181,-14.356,-31.056,-30.377,1.15E+08
28182,-17.544,-33.429,-26.762,1.68E+08
28183,-15.992,-29.829,-27.718,1.77E+08
28184,-17.991,-31.143,-26.464,1.71E+08
28185,-16.747,-31.395,-29.237,1.18E+08
28186,-20.667,-33.579,-24.431,1.60E+08
28187,-19.353,-31.84,-25.484,1.71E+08
28188,-20.588,-35.295,-26.18,1.17E+08
28189,-23.954,-33.018,-21.218,1.40E+08
28190,-21.074,-31.294,-24.081,1.63E+08
28191,-23.272,-30.495,-21.964,1.44E+08
28192,-22.963,-30.409,-24.249,1.31E+08
28193,-24.798,-32.453,-22.591,1.20E+08
28194,-22.282,-34.749,-24.747,1.09E+08
28195,-26.759,-33.158,-17.548,1.17E+08
28196,-24.84,-30.479,-20.173,1.29E+08
28197,-26.351,-30.676,-18.155,1.16E+08
28198,-27.623,-31.839,-19.136,1.10E+08
28199,-26.375,-32.437,-20.811,1.03E+08
28200,-28.922,-33.385,-13.693,9.86E+07
28201,-27.558,-30.833,-16.266,1.04E+08
28202,-28.547,-31.093,-14.459,9.85E+07
28203,-28.851,-31.996,-17.263,9.61E+07
28204,-30.407,-32.176,-13.67,1.01E+08
28205,-29.477,-34.749,-15.618,8.80E+07
28206,-30.578,-33.454,-9.4322,8.03E+07
28207,-29.466,-31.163,-12.48,8.87E+07
28208,-30.283,-31.186,-10.342,8.33E+07
28209,-31.34,-32.245,-11.699,9.04E+07
28210,-30.41,-34.818,-13.648,7.67E+07
28211,-31.586,-34.61,-12.085,8.25E+07
28212,-31.772,-34.753,-10.168,8.08E+07
28213,-31.643,-33.454,-4.7694,6.74E+07
28214,-30.971,-31.186,-8.0496,7.39E+07
28215,-31.483,-31.06,-5.7295,7.50E+07
28216,-32.045,-32.245,-9.4141,8.53E+07
28217,-32.871,-32.463,-6.8392,9.23E+07
28218,-32.477,-34.753,-7.8826,7.43E+07
28219,-32,-33.454,5.65E-15,8.30E+07
28220,-31.823,-31.06,-3.3608,7.64E+07
28221,-31.985,-31.04,-0.97608,8.92E+07
28222,-33.227,-32.463,-4.4746,9.65E+07
28223,-33.615,-31.878,-1.7022,1.07E+08
28224,-33.37,-34.54,-1.5602,8.29E+07
28225,-31.643,-33.454,4.7694,1.22E+08
28226,-31.969,-31.04,1.4169,1.05E+08
28227,-31.773,-31.036,3.8015,1.22E+08
28228,-33.406,-32.692,3.6154,1.09E+08
28229,-33.615,-31.878,0.68912,1.17E+08
28230,-33.18,-34.855,3.0313,9.31E+07
28231,-33.37,-34.54,0.83114,9.51E+07
28232,-30.578,-33.454,9.4322,1.57E+08
28233,-31.4,-31.036,6.1653,1.43E+08
28234,-30.852,-31.036,8.4945,1.58E+08
28235,-33.05,-32.692,5.9801,1.25E+08
28236,-32.398,-31.765,8.3335,1.25E+08
28237,-32.823,-34.855,5.3959,1.12E+08
28238,-32.237,-33.956,8.9301,1.13E+08
28239,-32.599,-35.457,7.443,1.08E+08
28240,-28.831,-33.454,13.884,1.76E+08
28241,-30.131,-31.036,10.776,1.72E+08
28242,-29.241,-31.035,12.998,1.71E+08
28243,-30.694,-31.772,13.493,1.31E+08
28244,-30.695,-34.664,13.423,1.20E+08
28245,-31.694,-31.765,10.619,1.39E+08
28246,-31.532,-33.956,11.215,1.28E+08
28247,-26.44,-33.454,18.026,1.90E+08
28248,-28.188,-31.035,15.147,1.78E+08
28249,-26.977,-31.035,17.211,1.75E+08
28250,-29.656,-31.772,15.647,1.43E+08
28251,-29.658,-34.664,15.578,1.31E+08
28252,-28.326,-34.935,17.77,1.29E+08
28253,-23.458,-33.454,21.766,2.10E+08
28254,-25.616,-31.035,19.179,1.84E+08
28255,-24.111,-31.035,21.039,1.95E+08
28256,-25.506,-34.169,21.835,1.37E+08
28257,-26.979,-34.935,19.746,1.41E+08
28258,-25.99,-31.589,21.164,1.52E+08
28259,-19.952,-33.454,25.019,2.45E+08
28260,-22.471,-31.035,22.782,2.13E+08
28261,-20.706,-31.035,24.398,2.33E+08
28262,-22.703,-31.91,24.686,1.70E+08
28263,-23.88,-34.169,23.588,1.57E+08
28264,-21.871,-33.992,25.556,1.46E+08
28265,-22.684,-36.22,24.553,1.48E+08
28266,-20.605,-31.623,26.04,1.76E+08
28267,-24.363,-31.589,22.917,1.73E+08
28268,-16,-33.454,27.713,2.69E+08
28269,-18.825,-31.035,25.877,2.55E+08
28270,-16.838,-31.035,27.212,2.74E+08
28271,-20.001,-33.992,27.047,1.70E+08
28272,-18.736,-31.623,27.531,2.01E+08
28273,-16.757,-34.372,28.979,1.57E+08
28274,-11.691,-33.454,29.788,2.62E+08
28275,-14.758,-31.035,28.394,2.77E+08
28276,-12.595,-31.035,29.417,2.78E+08
28277,-12.88,-33.341,30.833,1.66E+08
28278,-14.382,-31.282,30.431,1.80E+08
28279,-16.665,-31.623,28.727,2.06E+08
28280,-14.686,-34.372,30.174,1.61E+08
28281,-7.1207,-33.454,31.198,2.03E+08
28282,-10.361,-31.035,30.276,2.71E+08
28283,-8.0343,-30.999,30.975,2.37E+08
28284,-8.504,-32.528,32.376,1.47E+08
28285,-10.654,-33.341,31.706,1.58E+08
28286,-9.2609,-34.622,31.819,1.62E+08
28287,-3.3651,-31.036,31.823,1.26E+08
28288,-5.6971,-30.999,31.489,1.85E+08
28289,-5.0678,-34.962,33.623,4.86E+07
28290,-6.1726,-32.528,32.908,9.49E+07
28291,-2.8806,-32.354,33.304,7.28E+07
28292,-4.2123,-31.145,33.437,7.68E+07
28293,-2.8379,-34.346,33.272,6.64E+07
28294,-6.9295,-34.622,32.351,1.10E+08
28295,-11.95,-9.9905,-29.685,1.88E+08
28296,-9.7613,-13.352,-30.475,1.78E+08
28297,-12.07,-12.487,-29.636,2.03E+08
28298,-8.6717,-9.2781,-32.849,1.12E+08
28299,-9.8913,-7.2782,-32.121,1.13E+08
28300,-10.973,-9.4183,-32.225,1.36E+08
28301,-11.346,-11.907,-32.496,1.41E+08
28302,-9.5363,-11.11,-32.372,1.33E+08
28303,-16.341,-9.1904,-27.513,1.92E+08
28304,-14.292,-12.092,-28.631,2.24E+08
28305,-16.92,-11.936,-27.161,2.08E+08
28306,-16.67,-11.755,-29.824,2.07E+08
28307,-14.927,-7.6843,-30.908,1.75E+08
28308,-13.233,-9.0233,-31.316,1.56E+08
28309,-13.606,-11.512,-31.586,1.62E+08
28310,-16.806,-8.7437,-29.997,1.92E+08
28311,-15.35,-10.374,-30.879,1.84E+08
28312,-20.36,-8.7853,-24.688,1.68E+08
28313,-18.96,-11.531,-25.778,1.97E+08
28314,-20.618,-9.7541,-27.43,1.97E+08
28315,-20.089,-6.9208,-27.477,1.79E+08
28316,-18.787,-11.35,-28.567,2.01E+08
28317,-18.924,-8.3386,-28.739,1.89E+08
28318,-23.89,-8.7853,-21.29,1.55E+08
28319,-20.878,-11.531,-24.251,1.79E+08
28320,-22.893,-11.272,-22.359,1.68E+08
28321,-23.902,-6.9498,-24.106,1.59E+08
28322,-22.507,-9.7541,-25.872,1.91E+08
28323,-21.979,-6.9208,-25.919,1.80E+08
28324,-23.899,-10.139,-24.282,1.85E+08
28325,-23.893,-8.1266,-25.656,1.74E+08
28326,-24.859,-8.8358,-22.624,1.59E+08
28327,-26.86,-8.7853,-17.394,1.32E+08
28328,-24.537,-11.272,-20.541,1.59E+08
28329,-26.125,-11.232,-18.48,1.47E+08
28330,-28.166,-8.0118,-19.014,1.38E+08
28331,-26.489,-8.8358,-20.796,1.55E+08
28332,-27.749,-10.141,-19.774,1.62E+08
28333,-29.2,-8.7853,-13.09,9.19E+07
28334,-27.463,-11.232,-16.426,1.29E+08
28335,-28.677,-10.982,-14.199,1.11E+08
28336,-30.015,-10.248,-16.08,1.42E+08
28337,-30.696,-8.0297,-14.617,1.12E+08
28338,-29.498,-8.0118,-16.958,1.21E+08
28339,-30.754,-10.015,-14.025,1.30E+08
28340,-29.08,-10.141,-17.718,1.46E+08
28341,-30.856,-8.7853,-8.4794,7.82E+07
28342,-29.68,-10.982,-11.962,9.51E+07
28343,-30.509,-10.982,-9.6551,9.42E+07
28344,-31.698,-8.0297,-12.382,8.96E+07
28345,-32.559,-7.9779,-10.214,8.94E+07
28346,-33.21,-9.7955,-9.649,1.27E+08
28347,-31.756,-10.015,-11.79,1.12E+08
28348,-31.789,-8.7853,-3.6699,1.11E+08
28349,-31.158,-10.982,-7.2913,1.03E+08
28350,-31.625,-10.982,-4.8848,1.22E+08
28351,-33.593,-8.0967,-5.111,1.05E+08
28352,-33.684,-11.021,-5.6197,1.50E+08
28353,-33.208,-7.9779,-7.8522,8.49E+07
28354,-33.86,-9.7955,-7.2869,1.22E+08
28355,-33.293,-10.115,-3.9843,1.38E+08
28356,-31.977,-8.7853,1.2257,1.28E+08
28357,-31.906,-10.982,-2.4496,1.37E+08
28358,-32,-10.982,5.86E-15,1.48E+08
28359,-33.873,-8.0967,-2.6776,1.19E+08
28360,-33.574,-6.3019,-1.2566,1.11E+08
28361,-33.349,-7.5227,1.2028,1.49E+08
28362,-33.574,-10.115,-1.5508,1.54E+08
28363,-33.421,-9.7485,0.80838,1.62E+08
28364,-31.415,-8.7853,6.0925,1.36E+08
28365,-31.906,-10.982,2.4496,1.53E+08
28366,-31.625,-10.982,4.8848,1.61E+08
28367,-33.022,-9.1649,5.1938,1.69E+08
28368,-33.255,-7.5227,3.6505,1.50E+08
28369,-33.327,-9.7485,3.2562,1.67E+08
28370,-30.116,-8.7853,10.817,1.34E+08
28371,-31.158,-10.982,7.2913,1.70E+08
28372,-30.509,-10.982,9.6551,1.62E+08
28373,-32.556,-9.1649,7.5986,1.70E+08
28374,-32.748,-7.4434,8.6683,1.63E+08
28375,-32.194,-9.472,9.8934,1.60E+08
28376,-31.609,-7.0021,10.894,1.31E+08
28377,-28.112,-8.7853,15.287,1.36E+08
28378,-29.68,-10.982,11.962,1.53E+08
28379,-28.677,-10.982,14.199,1.45E+08
28380,-31.366,-9.472,12.199,1.56E+08
28381,-30.331,-8.2391,15.265,1.35E+08
28382,-32.054,-8.725,14.255,1.64E+08
28383,-31.326,-10.806,14.024,1.67E+08
28384,-30.781,-7.0021,13.199,1.31E+08
28385,-25.449,-8.7853,19.399,1.69E+08
28386,-27.506,-10.982,16.353,1.50E+08
28387,-26.174,-10.982,18.41,1.73E+08
28388,-29.161,-8.2391,17.417,1.56E+08
28389,-28.408,-6.4741,18.93,1.52E+08
28390,-28.675,-10.305,18.362,1.67E+08
28391,-27.214,-8.414,19.677,1.59E+08
28392,-22.19,-8.7853,23.057,1.91E+08
28393,-24.688,-10.982,20.36,1.88E+08
28394,-23.057,-10.982,22.19,2.11E+08
28395,-25.771,-11.173,22.107,1.96E+08
28396,-24.434,-10.951,23.578,2.12E+08
28397,-24.432,-8.0882,23.549,1.87E+08
28398,-25.729,-8.414,21.625,1.76E+08
28399,-18.41,-8.7853,26.174,1.87E+08
28400,-21.29,-10.982,23.89,2.15E+08
28401,-19.399,-10.982,25.449,2.21E+08
28402,-22.669,-10.951,25.277,2.12E+08
28403,-20.637,-9.6428,27.153,2.27E+08
28404,-22.667,-8.0882,25.247,1.83E+08
28405,-21.192,-7.551,26.655,1.94E+08
28406,-19.644,-7.7785,27.281,2.06E+08
28407,-14.199,-8.7853,28.677,2.07E+08
28408,-17.394,-10.982,26.86,2.27E+08
28409,-15.287,-10.982,28.112,2.43E+08
28410,-18.633,-9.6428,28.563,2.19E+08
28411,-16.157,-9.4742,29.872,2.43E+08
28412,-16.83,-11.632,29.105,2.49E+08
28413,-15.832,-7.6618,30.026,2.20E+08
28414,-17.641,-7.7785,28.691,1.94E+08
28415,-9.6551,-8.7853,30.509,2.60E+08
28416,-13.09,-10.982,29.2,2.76E+08
28417,-10.817,-10.982,30.116,2.95E+08
28418,-13.962,-9.4742,30.959,2.58E+08
28419,-12.522,-11.089,31.681,2.76E+08
28420,-13.637,-7.6618,31.112,2.27E+08
28421,-11.829,-8.7207,31.793,2.48E+08
28422,-4.8848,-8.7853,31.625,2.59E+08
28423,-8.4794,-10.982,30.856,3.15E+08
28424,-6.0925,-10.982,31.415,2.86E+08
28425,-7.8143,-7.1606,33.168,2.28E+08
28426,-7.7403,-10.292,33.077,2.55E+08
28427,-4.9415,-10.267,33.333,2.13E+08
28428,-5.733,-8.2422,34.212,2.08E+08
28429,-9.4939,-8.7207,32.533,2.64E+08
28430,6.43E-12,-8.7853,32,1.97E+08
28431,-3.6699,-10.982,31.789,2.57E+08
28432,-1.2257,-10.982,31.977,1.99E+08
28433,-2.5967,-5.8986,33.823,1.73E+08
28434,-2.5206,-10.267,33.707,1.91E+08
28435,-4.80E-02,-10.365,33.677,1.67E+08
28436,-3.3122,-8.2422,34.586,1.91E+08
28437,-1.1769,-8.0517,33.95,1.84E+08
28438,4.8848,-8.7853,31.625,1.19E+08
28439,1.2257,-10.982,31.977,1.61E+08
28440,3.6699,-10.982,31.789,9.56E+07
28441,3.6165,-8.2153,33.484,1.50E+08
28442,2.4016,-10.365,33.677,1.28E+08
28443,1.2726,-8.0517,33.95,1.48E+08
28444,9.6551,-8.7853,30.509,5.41E+07
28445,6.0925,-10.982,31.415,6.06E+07
28446,8.4794,-10.982,30.856,4.16E+07
28447,7.494,-6.4121,33.004,1.57E+08
28448,8.4222,-9.2522,32.629,1.04E+08
28449,6.0374,-8.2153,33.11,1.06E+08
28450,14.199,-8.7853,28.677,6.75E+07
28451,10.817,-10.982,30.116,5.52E+07
28452,13.09,-10.982,29.2,7.84E+07
28453,12.541,-7.2154,32.217,2.09E+08
28454,14.22,-6.4111,30.791,2.86E+08
28455,12.627,-11.246,31.887,1.16E+08
28456,14.129,-9.1576,30.81,1.94E+08
28457,10.758,-9.2522,31.89,8.51E+07
28458,12.479,-9.071,32.816,1.81E+08
28459,18.41,-8.7853,26.174,1.46E+08
28460,15.287,-10.982,28.112,9.07E+07
28461,17.394,-10.982,26.86,8.44E+07
28462,16.325,-9.1576,29.723,2.18E+08
28463,18.479,-9.787,27.98,2.24E+08
28464,17.811,-7.9217,28.607,2.77E+08
28465,22.19,-8.7853,23.057,2.27E+08
28466,19.399,-10.982,25.449,1.11E+08
28467,21.29,-10.982,23.89,1.62E+08
28468,20.483,-9.787,26.571,2.73E+08
28469,22.518,-9.592,25.202,2.57E+08
28470,19.815,-7.9217,27.197,3.29E+08
28471,21.838,-7.5733,25.465,3.16E+08
28472,25.449,-8.7853,19.399,2.30E+08
28473,23.057,-10.982,22.19,1.89E+08
28474,24.688,-10.982,20.36,2.14E+08
28475,26.278,-9.4735,21.571,2.21E+08
28476,24.283,-9.592,23.504,2.77E+08
28477,25.531,-7.7527,22.067,2.70E+08
28478,25.367,-10.924,22.336,2.18E+08
28479,23.603,-7.5733,23.766,3.36E+08
28480,28.112,-8.7853,15.287,1.65E+08
28481,26.174,-10.982,18.41,1.94E+08
28482,27.506,-10.982,16.353,1.72E+08
28483,28.53,-6.7091,18.124,2.03E+08
28484,27.763,-9.4735,19.623,1.96E+08
28485,27.016,-7.7527,20.119,2.43E+08
28486,29.915,-8.3586,19.006,1.68E+08
28487,29.154,-9.2974,17.157,1.61E+08
28488,30.116,-8.7853,10.817,1.03E+08
28489,28.677,-10.982,14.199,1.32E+08
28490,29.68,-10.982,11.962,1.14E+08
28491,31.306,-9.571,12.814,1.01E+08
28492,30.324,-9.2974,15.005,1.17E+08
28493,30.862,-7.6108,13.236,1.10E+08
28494,31.415,-8.7853,6.0925,1.14E+08
28495,30.509,-10.982,9.6551,9.94E+07
28496,31.158,-10.982,7.2913,1.11E+08
28497,33.078,-9.2936,7.5853,8.68E+07
28498,32.134,-9.571,10.508,8.73E+07
28499,32.655,-7.1099,9.137,7.57E+07
28500,32.666,-10.817,9.2265,8.96E+07
28501,31.69,-7.6108,10.931,8.64E+07
28502,31.977,-8.7853,1.2257,1.39E+08
28503,31.625,-10.982,4.8848,1.30E+08
28504,31.906,-10.982,2.4496,1.47E+08
28505,33.603,-7.873,2.6699,1.21E+08
28506,33.545,-9.2936,5.1805,1.09E+08
28507,33.484,-10.23,2.9463,1.29E+08
28508,31.789,-8.7853,-3.6699,1.45E+08
28509,32,-10.982,-2.06E-15,1.52E+08
28510,31.906,-10.982,-2.4496,1.58E+08
28511,34.799,-5.1523,-1.6792,9.35E+07
28512,34.05,-7.8503,-2.4385,1.04E+08
28513,33.697,-7.873,0.22214,1.24E+08
28514,33.726,-10.057,-1.8404,1.19E+08
28515,33.578,-10.23,0.49856,1.32E+08
28516,30.856,-8.7853,-8.4794,1.44E+08
28517,31.625,-10.982,-4.8848,1.59E+08
28518,31.158,-10.982,-7.2913,1.56E+08
28519,33.875,-5.9639,-6.3026,1.00E+08
28520,33.979,-11.02,-7.0561,1.18E+08
28521,33.77,-7.8503,-4.8719,1.13E+08
28522,33.585,-8.5568,-7.9308,1.13E+08
28523,33.445,-10.057,-4.2738,1.26E+08
28524,34.517,-9.2993,-5.8103,1.28E+08
28525,29.2,-8.7853,-13.09,1.42E+08
28526,30.509,-10.982,-9.6551,1.53E+08
28527,29.723,-11.199,-11.854,1.53E+08
28528,31.332,-6.351,-11.391,1.08E+08
28529,32.538,-10.131,-12.246,1.27E+08
28530,32.936,-8.5568,-10.293,1.28E+08
28531,31.033,-10.438,-13.912,1.24E+08
28532,31.836,-8.0665,-12.484,1.18E+08
28533,26.86,-8.7853,-17.394,1.45E+08
28534,28.729,-11.199,-14.094,1.50E+08
28535,27.651,-11.226,-16.107,1.54E+08
28536,30.031,-10.438,-16.147,1.31E+08
28537,28.357,-9.7437,-18.112,1.30E+08
28538,30.834,-8.0665,-14.72,1.27E+08
28539,29.182,-7.7025,-16.96,1.23E+08
28540,24.286,-8.5509,-20.837,1.53E+08
28541,26.337,-11.226,-18.176,1.55E+08
28542,24.659,-11.099,-20.394,1.59E+08
28543,26.688,-6.673,-20.673,1.30E+08
28544,27.025,-9.7437,-20.168,1.38E+08
28545,27.85,-7.7025,-19.016,1.31E+08
28546,25.596,-8.6069,-22.382,1.35E+08
28547,21.763,-9.1095,-23.46,1.59E+08
28548,23.439,-10.864,-21.785,1.61E+08
28549,24.391,-8.3725,-23.786,1.40E+08
28550,18.263,-9.7705,-26.277,1.51E+08
28551,22.185,-11.657,-23.062,1.63E+08
28552,20.257,-12.607,-24.772,1.65E+08
28553,22.524,-11.403,-25.806,1.40E+08
28554,20.4,-11.155,-27.075,1.42E+08
28555,20.976,-8.7671,-26.162,1.45E+08
28556,23.08,-9.1655,-25.003,1.40E+08
28557,15.218,-11.23,-28.15,1.42E+08
28558,18.092,-12.475,-26.395,1.56E+08
28559,18.18,-11.023,-28.617,1.32E+08
28560,18.756,-8.635,-27.705,1.35E+08
28561,15.358,-8.8921,-30.505,1.27E+08
28562,17.003,-8.8867,-29.17,1.34E+08
28563,-9.775,-19.117,-30.47,1.82E+08
28564,-12.173,-15.454,-29.594,2.14E+08
28565,-12.3,-18.669,-29.542,2.00E+08
28566,-9.6807,-18.612,-32.432,1.51E+08
28567,-11.452,-14.874,-32.462,1.53E+08
28568,-9.1843,-15.683,-32.984,1.39E+08
28569,-11.227,-16.633,-34.344,1.28E+08
28570,-12.007,-16.792,-31.909,1.62E+08
28571,-9.6424,-14.077,-32.338,1.44E+08
28572,-9.5936,-24.687,-30.528,1.63E+08
28573,-12.846,-24.42,-29.308,1.75E+08
28574,-12.211,-21.467,-29.579,1.92E+08
28575,-9.5883,-21.41,-32.462,1.46E+08
28576,-12.257,-21.202,-31.893,1.52E+08
28577,-8.484,-23.8,-32.336,1.45E+08
28578,-11.326,-23.136,-31.373,1.49E+08
28579,-11.915,-19.59,-31.939,1.55E+08
28580,-12.76,-27.192,-29.346,1.66E+08
28581,-12.06,-27.629,-31.314,1.25E+08
28582,-8.3951,-26.571,-32.364,1.34E+08
28583,-9.9109,-30.368,-31.837,1.13E+08
28584,-11.237,-25.908,-31.401,1.37E+08
28585,13.546,-14.552,-28.991,1.43E+08
28586,17.366,-14.066,-26.878,1.55E+08
28587,15.267,-14.847,-28.123,1.52E+08
28588,17.414,-12.614,-29.032,1.30E+08
28589,14.592,-10.483,-30.919,1.25E+08
28590,13.514,-12.426,-31.256,1.22E+08
28591,15.873,-13.633,-29.983,1.29E+08
28592,16.236,-10.478,-29.584,1.31E+08
28593,13.02,-18.009,-29.231,1.57E+08
28594,14.381,-16.578,-28.587,1.54E+08
28595,14.172,-17.125,-30.679,1.34E+08
28596,12.401,-16.281,-31.281,1.30E+08
28597,12.608,-14.157,-31.679,1.24E+08
28598,14.967,-15.364,-30.406,1.31E+08
28599,13.7,-21.794,-28.919,1.79E+08
28600,14.757,-18.303,-28.394,1.66E+08
28601,15.723,-20.147,-27.871,1.75E+08
28602,12.663,-19.977,-31.683,1.43E+08
28603,14.559,-18.85,-30.507,1.45E+08
28604,15.24,-20.885,-30.023,1.52E+08
28605,12.787,-18.006,-31.109,1.40E+08
28606,13.208,-22.041,-30.529,1.54E+08
28607,13.502,-25.926,-29.012,1.87E+08
28608,15.139,-26.054,-28.192,1.86E+08
28609,16.005,-22.206,-27.71,1.86E+08
28610,15.987,-24.396,-27.72,1.88E+08
28611,15.534,-22.944,-29.884,1.63E+08
28612,14.991,-26.275,-29.982,1.50E+08
28613,16.997,-25.572,-29.112,1.50E+08
28614,13.502,-24.101,-30.39,1.65E+08
28615,14.658,-28.127,-28.445,1.84E+08
28616,14.498,-28.347,-30.211,1.48E+08
28617,13.009,-26.173,-30.619,1.63E+08
28618,12.823,-30.215,-31.007,1.34E+08
28619,12.218,-28.245,-31.333,1.44E+08
28620,5.1621,-28.659,31.581,2.51E+08
28621,9.8113,-28.659,30.459,4.10E+08
28622,8.846,-26.425,30.753,3.65E+08
28623,6.5189,-26.44,31.329,2.86E+08
28624,8.1217,-25.838,33.111,2.07E+08
28625,10.085,-27.304,32.488,2.12E+08
28626,6.1748,-26.691,33.288,2.14E+08
28627,7.5603,-30.567,32.591,2.22E+08
28628,10.072,-30.35,31.927,2.33E+08
28629,0.4331,-28.624,31.997,1.08E+08
28630,4.1897,-26.409,31.725,2.11E+08
28631,1.8225,-26.417,31.948,1.28E+08
28632,0.91307,-29.941,33.421,1.01E+08
28633,2.0975,-28.048,33.734,1.18E+08
28634,3.8448,-26.661,33.669,1.29E+08
28635,2.7865,-30.523,33.463,1.13E+08
28636,5.2303,-30.537,32.972,1.38E+08
28637,-4.2987,-28.581,31.71,1.54E+08
28638,-0.56498,-26.412,31.995,9.86E+07
28639,-2.9831,-26.4,31.861,1.39E+08
28640,-1.7937,-25.897,33.806,5.85E+07
28641,-1.473,-29.936,33.453,4.68E+07
28642,-0.28861,-28.043,33.766,6.27E+07
28643,-2.8047,-28.727,33.585,4.64E+07
28644,14.273,-28.624,28.641,5.03E+08
28645,11.148,-26.394,29.995,4.42E+08
28646,13.433,-26.44,29.044,4.88E+08
28647,12.39,-27.273,31.746,2.88E+08
28648,14.328,-28.3,30.645,3.08E+08
28649,12.377,-30.319,31.185,3.11E+08
28650,18.387,-28.618,26.19,4.71E+08
28651,15.57,-26.435,27.957,5.04E+08
28652,17.671,-26.089,26.679,4.66E+08
28653,16.473,-28.295,29.577,3.26E+08
28654,17.941,-28.497,28.499,3.58E+08
28655,18.686,-30.061,27.536,3.81E+08
28656,17.644,-26.589,28.66,3.48E+08
28657,17.072,-30.481,28.981,3.37E+08
28658,22.086,-28.617,23.156,3.48E+08
28659,19.615,-26.088,25.283,4.18E+08
28660,21.408,-26.424,23.785,3.46E+08
28661,19.899,-28.497,27.124,3.16E+08
28662,20.644,-30.061,26.161,3.38E+08
28663,21.822,-28.044,25.459,3.56E+08
28664,22.36,-30.206,24.924,3.35E+08
28665,25.291,-28.617,19.606,2.32E+08
28666,23.125,-26.424,22.118,2.75E+08
28667,24.75,-26.088,20.284,2.22E+08
28668,26.057,-29.977,20.932,2.46E+08
28669,25.053,-27.727,22.883,2.91E+08
28670,23.553,-28.044,23.808,2.95E+08
28671,24.09,-30.206,23.274,2.69E+08
28672,27.93,-28.617,15.617,1.83E+08
28673,26.196,-26.088,18.378,1.90E+08
28674,27.497,-26.088,16.369,1.77E+08
28675,29.269,-30.544,16.628,1.56E+08
28676,28.578,-26.896,18.599,1.98E+08
28677,27.522,-29.977,19.042,1.94E+08
28678,26.518,-27.727,20.993,2.45E+08
28679,29.946,-28.617,11.28,1.60E+08
28680,28.643,-26.088,14.268,1.68E+08
28681,29.629,-26.088,12.088,1.53E+08
28682,31.137,-27.504,13.61,1.44E+08
28683,30.436,-30.544,14.541,1.36E+08
28684,29.745,-26.896,16.512,1.83E+08
28685,31.159,-30.687,11.861,1.12E+08
28686,31.293,-28.617,6.691,1.43E+08
28687,30.45,-26.088,9.8399,1.45E+08
28688,31.1,-26.088,7.5369,1.39E+08
28689,32.683,-27.075,9.1834,1.26E+08
28690,31.98,-27.504,11.372,1.44E+08
28691,32.002,-30.687,9.6236,1.08E+08
28692,32.635,-29.705,7.5328,1.12E+08
28693,31.94,-28.617,1.9524,1.46E+08
28694,31.576,-26.088,5.1917,1.41E+08
28695,31.876,-26.088,2.8175,1.47E+08
28696,33.878,-26.955,4.5121,1.28E+08
28697,33.183,-27.075,6.8449,1.38E+08
28698,33.135,-29.705,5.1943,1.22E+08
28699,33.562,-28.806,2.9173,1.22E+08
28700,31.875,-28.617,-2.8299,1.63E+08
28701,31.997,-26.088,0.42759,1.59E+08
28702,31.94,-26.088,-1.9648,1.69E+08
28703,34.119,-26.895,-0.73241,1.32E+08
28704,33.442,-27.899,-2.0046,1.32E+08
28705,33.708,-28.806,0.53038,1.38E+08
28706,33.363,-29.828,-1.2313,1.26E+08
28707,31.097,-28.617,-7.5489,1.68E+08
28708,31.703,-26.088,-4.3461,1.78E+08
28709,31.29,-26.088,-6.7032,1.77E+08
28710,32.331,-29.575,-8.012,1.27E+08
28711,33.052,-27.442,-7.0757,1.30E+08
28712,33.23,-27.899,-4.3866,1.42E+08
28713,33.151,-29.828,-3.6133,1.35E+08
28714,33.095,-30.346,-5.8398,1.24E+08
28715,32.704,-26.702,-7.4177,1.34E+08
28716,29.624,-28.617,-12.099,1.55E+08
28717,30.702,-26.088,-9.0227,1.75E+08
28718,29.942,-26.088,-11.292,1.63E+08
28719,31.385,-27.539,-11.493,1.29E+08
28720,31.767,-29.575,-10.336,1.27E+08
28721,32.487,-27.442,-9.3995,1.31E+08
28722,32.14,-26.702,-9.7416,1.33E+08
28723,27.474,-28.529,-16.406,1.45E+08
28724,29.014,-26.088,-13.498,1.55E+08
28725,28.055,-26.069,-15.391,1.50E+08
28726,28.753,-30.129,-17.076,1.11E+08
28727,30.481,-27.539,-13.706,1.25E+08
28728,30.137,-30.346,-15.194,1.08E+08
28729,30.863,-29.575,-12.55,1.21E+08
28730,29.197,-28.033,-16.677,1.19E+08
28731,24.736,-28.361,-20.301,1.54E+08
28732,26.81,-25.982,-17.471,1.54E+08
28733,25.412,-25.882,-19.448,1.60E+08
28734,27.512,-30.041,-19.155,1.17E+08
28735,26.104,-30.067,-21.019,1.16E+08
28736,27.955,-27.946,-18.756,1.27E+08
28737,26.556,-26.713,-20.447,1.35E+08
28738,21.501,-28.372,-23.7,1.68E+08
28739,23.923,-25.801,-21.253,1.67E+08
28740,22.217,-25.919,-23.031,1.72E+08
28741,23.761,-27.657,-23.653,1.40E+08
28742,24.62,-29.986,-22.827,1.24E+08
28743,25.073,-26.633,-22.255,1.45E+08
28744,18.018,-28.359,-26.445,1.79E+08
28745,20.462,-26.01,-24.603,1.80E+08
28746,18.811,-26.701,-25.887,1.81E+08
28747,19.85,-27.877,-27.332,1.42E+08
28748,22.017,-27.749,-25.236,1.48E+08
28749,20.913,-30.239,-26.19,1.32E+08
28750,17.089,-26.596,-27.055,1.85E+08
28751,16.125,-28.475,-29.373,1.47E+08
28752,18.131,-27.773,-28.503,1.47E+08
28753,-17.871,-28.24,-26.545,1.82E+08
28754,-15.263,-23.973,-28.126,2.00E+08
28755,-18.405,-25.889,-26.177,1.86E+08
28756,-17.135,-24.342,-27.026,2.01E+08
28757,-17.625,-24.895,-28.793,1.70E+08
28758,-18.12,-26.945,-28.281,1.56E+08
28759,-15.24,-27.363,-29.931,1.37E+08
28760,-14.418,-25.641,-30.018,1.49E+08
28761,-16.621,-28.491,-29.31,1.33E+08
28762,-22.085,-28.755,-23.157,1.56E+08
28763,-20.284,-27.203,-24.75,1.80E+08
28764,-21.697,-28.67,-25.357,1.50E+08
28765,-20.076,-28.259,-26.964,1.47E+08
28766,-18.577,-29.805,-27.993,1.26E+08
28767,-25.765,-28.154,-18.978,1.21E+08
28768,-22.55,-26.404,-22.705,1.61E+08
28769,-25.595,-25.588,-19.207,1.23E+08
28770,-24.046,-25.554,-21.113,1.40E+08
28771,-23.903,-27.871,-23.253,1.32E+08
28772,-25.738,-29.915,-21.595,1.21E+08
28773,-26.357,-26.966,-20.606,1.39E+08
28774,-24.965,-26.365,-22.656,1.42E+08
28775,-28.21,-28.611,-15.107,9.86E+07
28776,-27.028,-25.784,-17.132,1.05E+08
28777,-28.043,-26.264,-15.413,1.01E+08
28778,-28.48,-29.514,-17.892,1.10E+08
28779,-27.233,-30.111,-19.567,1.02E+08
28780,-27.851,-27.163,-18.577,1.20E+08
28781,-29.997,-28.894,-11.145,8.62E+07
28782,-28.977,-26.524,-13.577,9.27E+07
28783,-29.676,-26.99,-11.973,9.17E+07
28784,-29.452,-29.774,-16.077,9.96E+07
28785,-31.008,-29.954,-12.484,1.04E+08
28786,-30.912,-26.398,-13.651,1.26E+08
28787,-31.298,-28.792,-6.6676,8.39E+07
28788,-30.456,-27.013,-9.8203,8.65E+07
28789,-31.065,-26.428,-7.6809,9.42E+07
28790,-32.515,-27.928,-8.6225,1.20E+08
28791,-31.804,-29.977,-10.339,9.91E+07
28792,-32.63,-30.194,-7.7646,1.06E+08
28793,-31.941,-28.646,-1.9484,1.01E+08
28794,-31.549,-26.303,-5.3549,1.01E+08
28795,-31.849,-26.749,-3.1041,1.11E+08
28796,-33.01,-27.803,-6.3004,1.30E+08
28797,-33.125,-30.069,-5.4424,1.16E+08
28798,-33.513,-29.484,-2.6701,1.26E+08
28799,-33.371,-27.101,-2.1109,1.42E+08
28800,-31.875,-28.621,2.8305,1.31E+08
28801,-31.992,-26.728,-0.71818,1.23E+08
28802,-31.959,-25.851,1.6267,1.47E+08
28803,-33.449,-30.277,2.6403,1.29E+08
28804,-33.658,-29.463,-0.286,1.38E+08
28805,-33.516,-27.08,0.27315,1.53E+08
28806,-31.097,-28.617,7.5491,1.61E+08
28807,-31.748,-25.847,4.01,1.61E+08
28808,-31.363,-26.704,6.3539,1.68E+08
28809,-33.238,-30.274,5.0218,1.39E+08
28810,-32.587,-29.347,7.3753,1.39E+08
28811,-33.209,-26.013,5.146,1.70E+08
28812,-33.305,-27.077,2.6547,1.62E+08
28813,-29.624,-28.617,12.099,1.73E+08
28814,-30.8,-26.704,8.6798,1.80E+08
28815,-30.148,-25.758,10.728,1.82E+08
28816,-31.023,-29.354,12.573,1.39E+08
28817,-32.022,-29.347,9.6991,1.47E+08
28818,-31.819,-26.939,10.791,1.55E+08
28819,-27.49,-28.617,16.38,1.69E+08
28820,-29.262,-25.758,12.951,1.81E+08
28821,-27.924,-26.088,15.628,1.62E+08
28822,-29.648,-27.12,15.178,1.47E+08
28823,-30.118,-29.354,14.787,1.40E+08
28824,-30.915,-26.939,13.005,1.54E+08
28825,-24.742,-28.617,20.294,1.82E+08
28826,-26.678,-26.088,17.671,1.64E+08
28827,-25.451,-26.725,19.397,1.67E+08
28828,-28.424,-27.12,17.232,1.52E+08
28829,-28.894,-29.354,16.841,1.45E+08
28830,-27.403,-26.936,19.311,1.53E+08
28831,-26.575,-29.17,20.382,1.41E+08
28832,-21.441,-28.617,23.755,2.21E+08
28833,-23.93,-26.725,21.245,1.85E+08
28834,-22.466,-25.737,22.788,2.04E+08
28835,-23.398,-29.492,24,1.59E+08
28836,-22.583,-27.463,24.624,1.74E+08
28837,-25.059,-29.17,22.231,1.63E+08
28838,-17.661,-28.617,26.685,2.62E+08
28839,-20.7,-25.737,24.403,2.28E+08
28840,-18.561,-26.343,26.067,2.57E+08
28841,-21.623,-29.492,25.602,1.83E+08
28842,-20.808,-27.463,26.226,1.99E+08
28843,-19.525,-29.204,26.957,1.90E+08
28844,-13.487,-28.617,29.019,2.83E+08
28845,-16.561,-26.343,27.381,2.78E+08
28846,-14.432,-26.395,28.561,2.97E+08
28847,-16.029,-26.692,29.299,2.27E+08
28848,-15.248,-28.863,29.98,1.85E+08
28849,-17.531,-29.204,28.276,2.11E+08
28850,-8.976,-28.58,30.715,2.52E+08
28851,-12.258,-26.395,29.559,2.99E+08
28852,-10.013,-26.393,30.393,2.90E+08
28853,-11.632,-26.866,31.606,2.08E+08
28854,-9.428,-30.11,32.059,1.63E+08
28855,-11.578,-30.922,31.39,1.73E+08
28856,-13.08,-28.863,30.988,1.89E+08
28857,-5.319,-26.363,31.555,2.02E+08
28858,-7.6786,-26.356,31.065,2.57E+08
28859,-9.3019,-26.829,32.287,1.75E+08
28860,-6.9284,-27.047,33.22,1.37E+08
28861,-7.0979,-30.073,32.74,1.28E+08
28862,-5.1376,-28.69,33.269,1.16E+08
28863,-17.03,-14.432,-27.092,2.24E+08
28864,-14.53,-17.804,-28.511,2.27E+08
28865,-15.9,-16.268,-27.77,2.38E+08
28866,-16.786,-14.251,-29.766,2.21E+08
28867,-16.199,-16.473,-30.406,1.95E+08
28868,-13.722,-14.009,-31.529,1.77E+08
28869,-15.466,-12.871,-30.821,1.97E+08
28870,-14.277,-15.927,-30.976,1.87E+08
28871,-21.618,-14.017,-23.593,1.90E+08
28872,-20.266,-16.096,-24.765,2.06E+08
28873,-18.44,-16.112,-26.152,2.23E+08
28874,-21.163,-12.5,-27.029,2.07E+08
28875,-19.333,-14.095,-28.165,2.12E+08
28876,-20.303,-16.166,-26.665,2.18E+08
28877,-21.206,-14.508,-26.698,2.27E+08
28878,-22.555,-12.884,-25.439,2.03E+08
28879,-22.27,-15.36,-24.765,2.15E+08
28880,-25.254,-13.719,-19.653,1.60E+08
28881,-22.327,-15.837,-22.924,1.85E+08
28882,-24.182,-16.214,-20.958,1.63E+08
28883,-25.833,-13.788,-22.214,1.99E+08
28884,-24.591,-12.625,-23.573,1.91E+08
28885,-24.306,-15.101,-22.899,1.99E+08
28886,-25.551,-11.322,-21.916,1.64E+08
28887,-28.072,-13.429,-15.362,1.27E+08
28888,-25.804,-16.174,-18.925,1.49E+08
28889,-27.601,-16.29,-16.192,1.27E+08
28890,-27.429,-13.749,-20.163,1.86E+08
28891,-29.342,-12.695,-17.205,1.60E+08
28892,-28.639,-14.776,-17.919,1.83E+08
28893,-27.148,-11.283,-19.864,1.52E+08
28894,-28.407,-12.588,-18.843,1.63E+08
28895,-30.116,-13.178,-10.817,1.09E+08
28896,-28.797,-16.039,-13.955,1.13E+08
28897,-29.697,-15.262,-11.92,1.10E+08
28898,-30.559,-12.445,-14.981,1.41E+08
28899,-30.891,-14.312,-13.489,1.58E+08
28900,-29.856,-14.526,-15.696,1.65E+08
28901,-31.298,-12.211,-12.927,1.31E+08
28902,-31.415,-13.178,-6.0925,1.32E+08
28903,-30.522,-15.262,-9.6115,1.13E+08
28904,-31.159,-15.773,-7.2892,1.28E+08
28905,-31.719,-14.312,-11.184,1.53E+08
28906,-32.851,-13.739,-9.1902,1.67E+08
28907,-33.405,-13.217,-6.8132,1.68E+08
28908,-33.58,-11.992,-8.4804,1.42E+08
28909,-32.126,-12.211,-10.621,1.25E+08
28910,-31.977,-13.178,-1.2257,1.64E+08
28911,-31.625,-15.773,-4.8826,1.47E+08
28912,-31.921,-15.478,-2.2404,1.68E+08
28913,-33.871,-13.217,-4.4084,1.82E+08
28914,-33.525,-14.507,-2.7333,1.98E+08
28915,-33.48,-12.311,-2.7729,1.69E+08
28916,-31.789,-13.178,3.6699,1.86E+08
28917,-31.999,-15.478,0.20974,1.84E+08
28918,-31.89,-15.472,2.6461,1.97E+08
28919,-33.619,-14.507,-0.2855,2.15E+08
28920,-33.399,-14.294,1.9609,2.09E+08
28921,-33.574,-12.311,-0.32516,1.85E+08
28922,-33.421,-11.945,2.0341,1.88E+08
28923,-30.856,-13.178,8.4794,1.91E+08
28924,-31.594,-15.472,5.0795,2.10E+08
28925,-31.116,-15.465,7.4693,2.09E+08
28926,-33.118,-14.294,4.3943,2.18E+08
28927,-32.835,-11.361,6.4052,1.89E+08
28928,-32.474,-11.668,8.7,1.77E+08
28929,-32.972,-14.45,6.8618,2.16E+08
28930,-33.14,-11.945,4.4675,1.94E+08
28931,-33.223,-13.207,8.0079,2.09E+08
28932,-29.2,-13.178,13.09,1.69E+08
28933,-30.453,-15.465,9.8293,2.04E+08
28934,-29.667,-15.431,11.994,1.83E+08
28935,-31.825,-11.668,11.062,1.66E+08
28936,-32.323,-14.45,9.2238,2.06E+08
28937,-31.975,-14.509,11.061,1.94E+08
28938,-31.784,-13.002,12.887,1.76E+08
28939,-32.574,-13.207,10.37,1.98E+08
28940,-26.86,-13.178,17.394,1.76E+08
28941,-28.662,-15.431,14.23,1.69E+08
28942,-27.499,-15.78,16.365,1.64E+08
28943,-29.787,-10.435,16.363,1.41E+08
28944,-29.301,-12.501,17.308,1.60E+08
28945,-29.015,-14.577,17.048,1.74E+08
28946,-30.782,-13.002,15.122,1.74E+08
28947,-23.89,-13.178,21.29,2.20E+08
28948,-26.166,-15.78,18.422,1.76E+08
28949,-24.604,-15.464,20.461,2.04E+08
28950,-27.969,-12.501,19.365,1.80E+08
28951,-26.55,-13.37,21.162,1.98E+08
28952,-27.683,-14.577,19.104,1.91E+08
28953,-26.509,-10.61,20.679,1.69E+08
28954,-20.36,-13.178,24.688,2.53E+08
28955,-22.965,-15.464,22.284,2.26E+08
28956,-21.288,-15.443,23.892,2.51E+08
28957,-24.921,-13.37,22.99,2.19E+08
28958,-23.584,-13.147,24.461,2.35E+08
28959,-21.556,-14.627,25.959,2.60E+08
28960,-23.432,-15.79,24.175,2.28E+08
28961,-16.353,-13.178,27.506,2.83E+08
28962,-19.397,-15.443,25.451,2.65E+08
28963,-17.52,-15.171,26.778,2.83E+08
28964,-21.694,-13.147,26.02,2.43E+08
28965,-19.662,-11.839,27.896,2.51E+08
28966,-19.667,-14.627,27.518,2.74E+08
28967,-17.859,-13.829,28.439,2.86E+08
28968,-11.962,-13.178,29.68,3.27E+08
28969,-15.418,-15.171,28.041,3.09E+08
28970,-13.301,-15.161,29.105,3.30E+08
28971,-15.08,-11.671,30.457,2.86E+08
28972,-15.754,-13.829,29.691,3.06E+08
28973,-13.641,-13.285,31.18,3.08E+08
28974,-7.2913,-13.178,31.158,3.16E+08
28975,-11.034,-15.161,30.038,3.49E+08
28976,-8.7327,-15.15,30.785,3.44E+08
28977,-11.369,-13.285,32.095,3.23E+08
28978,-8.9222,-12.489,32.752,2.84E+08
28979,-9.4178,-14.335,32.373,2.88E+08
28980,-10.676,-10.917,32.208,2.89E+08
28981,-10.675,-15.246,31.811,3.00E+08
28982,-2.4496,-13.178,31.906,2.20E+08
28983,-6.3505,-15.15,31.364,3.09E+08
28984,-3.9417,-15.158,31.756,2.48E+08
28985,-6.537,-12.489,33.31,2.55E+08
28986,-2.6648,-14.547,33.711,1.82E+08
28987,-3.7382,-12.463,33.566,2.11E+08
28988,-5.2438,-14.753,33.395,2.14E+08
28989,-7.0326,-14.335,32.931,2.53E+08
28990,2.4496,-13.178,31.906,9.08E+07
28991,-1.4993,-15.158,31.965,1.83E+08
28992,0.93431,-15.178,31.986,1.04E+08
28993,-0.22237,-14.547,33.899,1.18E+08
28994,-1.2958,-12.463,33.753,1.51E+08
28995,1.1768,-12.562,33.724,1.27E+08
28996,7.2913,-13.178,31.158,5.62E+07
28997,3.3801,-15.178,31.821,4.62E+07
28998,5.7808,-15.154,31.474,7.38E+07
28999,7.219,-11.449,32.862,8.39E+07
29000,6.6958,-14.175,33.207,5.14E+07
29001,4.8341,-10.412,33.344,8.27E+07
29002,3.6192,-12.562,33.536,5.86E+07
29003,5.3555,-12.591,34.44,6.07E+07
29004,4.4216,-14.897,33.911,3.67E+07
29005,11.962,-13.178,29.68,1.36E+08
29006,8.1731,-15.154,30.939,1.28E+08
29007,10.503,-15.138,30.227,1.82E+08
29008,11.473,-13.442,32.301,1.02E+08
29009,9.6041,-11.449,32.304,5.84E+07
29010,9.081,-14.175,32.649,6.59E+07
29011,16.353,-13.178,27.506,1.39E+08
29012,12.786,-15.138,29.335,2.09E+08
29013,14.996,-15.139,28.269,2.33E+08
29014,13.745,-13.442,31.386,1.10E+08
29015,15.248,-11.354,30.309,1.60E+08
29016,14.841,-15.549,30.424,1.33E+08
29017,16.385,-13.824,29.636,1.61E+08
29018,17.402,-11.983,28.566,1.74E+08
29019,20.36,-13.178,24.688,1.04E+08
29020,17.116,-15.139,27.038,2.04E+08
29021,19.148,-15.131,25.639,1.49E+08
29022,18.49,-13.824,28.384,1.69E+08
29023,19.508,-11.983,27.314,1.92E+08
29024,19.024,-15.953,27.781,1.67E+08
29025,20.285,-14.007,26.775,1.70E+08
29026,23.89,-13.178,21.29,1.56E+08
29027,21.054,-15.131,24.098,1.16E+08
29028,22.803,-15.192,22.45,1.21E+08
29029,21.398,-11.983,25.756,2.35E+08
29030,22.175,-14.007,25.217,1.95E+08
29031,23.433,-11.788,24.387,2.16E+08
29032,24.517,-13.12,23.22,1.63E+08
29033,23.764,-14.017,24.518,1.81E+08
29034,26.86,-13.178,17.394,1.57E+08
29035,24.455,-15.192,20.639,1.40E+08
29036,26.041,-15.886,18.598,1.55E+08
29037,27.839,-14.12,19.747,1.36E+08
29038,27.058,-11.67,20.626,1.81E+08
29039,26.377,-15.175,21.152,1.57E+08
29040,26.147,-13.12,21.391,1.84E+08
29041,29.2,-13.178,13.09,1.16E+08
29042,27.388,-15.886,16.55,1.35E+08
29043,28.728,-15.912,14.096,1.23E+08
29044,30.616,-14.214,15.202,1.01E+08
29045,29.17,-14.12,17.691,1.20E+08
29046,28.39,-11.67,18.57,1.58E+08
29047,30.762,-11.767,13.912,1.05E+08
29048,29.78,-11.494,16.103,1.24E+08
29049,28.899,-14.986,15.901,1.13E+08
29050,30.856,-13.178,8.4794,1.12E+08
29051,29.723,-15.912,11.855,1.08E+08
29052,30.525,-15.912,9.6036,1.12E+08
29053,31.618,-14.214,12.967,9.45E+07
29054,31.764,-11.767,11.677,9.22E+07
29055,32.121,-14.969,10.814,9.60E+07
29056,32.296,-13.013,10.395,9.09E+07
29057,31.789,-13.178,3.6699,1.43E+08
29058,31.171,-15.912,7.2387,1.22E+08
29059,31.623,-15.913,4.8945,1.38E+08
29060,33.541,-14.898,6.3546,1.14E+08
29061,33.358,-11.49,6.3918,1.04E+08
29062,32.77,-14.969,8.4521,1.12E+08
29063,33.297,-12.426,4.1577,1.22E+08
29064,32.945,-13.013,8.0331,1.05E+08
29065,32.807,-14.224,4.7294,1.25E+08
29066,31.977,-13.178,-1.2257,1.65E+08
29067,31.905,-15.913,2.4594,1.54E+08
29068,32,-15.906,7.44E-02,1.68E+08
29069,33.726,-12.253,-0.61473,1.27E+08
29070,33.578,-12.426,1.7242,1.40E+08
29071,33.281,-13.865,0.42073,1.42E+08
29072,33.088,-14.224,2.296,1.42E+08
29073,31.415,-13.178,-6.0925,1.66E+08
29074,31.912,-15.906,-2.3754,1.74E+08
29075,31.644,-15.91,-4.7631,1.77E+08
29076,34.166,-13.216,-5.8447,1.21E+08
29077,34.075,-14.946,-3.6073,1.37E+08
29078,33.101,-15.081,-5.8582,1.32E+08
29079,33.632,-12.253,-3.0625,1.33E+08
29080,34.701,-13.607,-4.3713,1.22E+08
29081,33.187,-13.865,-2.0271,1.47E+08
29082,30.156,-13.396,-10.707,1.60E+08
29083,31.186,-15.91,-7.1714,1.73E+08
29084,30.562,-15.906,-9.4841,1.65E+08
29085,32.908,-12.328,-11.077,1.24E+08
29086,33.699,-13.216,-8.2495,1.30E+08
29087,33.306,-10.753,-9.1243,1.25E+08
29088,32.518,-14.125,-10.268,1.29E+08
29089,32.634,-15.081,-8.263,1.35E+08
29090,28.302,-13.64,-14.933,1.60E+08
29091,29.789,-16.123,-11.687,1.61E+08
29092,28.832,-16.122,-13.882,1.62E+08
29093,32.127,-12.545,-13.276,1.36E+08
29094,31.737,-14.343,-12.467,1.38E+08
29095,30.622,-12.852,-14.942,1.33E+08
29096,30.277,-15.331,-15.384,1.37E+08
29097,25.594,-13.539,-19.207,1.64E+08
29098,27.769,-16.148,-15.902,1.62E+08
29099,26.71,-16.154,-17.623,1.68E+08
29100,28.103,-14.317,-19.292,1.40E+08
29101,29.557,-12.878,-16.96,1.41E+08
29102,29.212,-15.357,-17.402,1.43E+08
29103,27.884,-12.184,-18.925,1.40E+08
29104,22.034,-14.362,-23.206,1.68E+08
29105,25.079,-16.027,-19.875,1.68E+08
29106,23.37,-16.201,-21.859,1.74E+08
29107,24.231,-13.157,-24.165,1.43E+08
29108,26.435,-14.19,-21.515,1.45E+08
29109,26.216,-12.057,-21.147,1.45E+08
29110,24.531,-15.23,-23.45,1.47E+08
29111,26.023,-16.075,-21.809,1.48E+08
29112,25.915,-13.013,-23.001,1.41E+08
29113,24.786,-10.92,-23.361,1.42E+08
29114,18.138,-16.092,-26.363,1.66E+08
29115,19.032,-17.935,-25.725,1.76E+08
29116,21.535,-17.15,-23.669,1.74E+08
29117,20.302,-16.455,-27.383,1.45E+08
29118,22.363,-14.107,-25.938,1.44E+08
29119,21.75,-18.128,-26.023,1.51E+08
29120,20.239,-13.86,-27.207,1.45E+08
29121,22.664,-16.18,-25.224,1.48E+08
29122,-16.019,-19.483,-27.702,2.27E+08
29123,-16.548,-21.389,-27.389,2.16E+08
29124,-16.322,-19.688,-30.344,1.83E+08
29125,-17.018,-21.942,-29.122,1.88E+08
29126,-14.742,-20.754,-30.867,1.68E+08
29127,-13.811,-22.688,-30.347,1.68E+08
29128,-14.4,-19.142,-30.913,1.73E+08
29129,-16.283,-21.363,-30.588,1.71E+08
29130,17.016,-18.716,-27.101,1.73E+08
29131,15.894,-17.419,-29.813,1.43E+08
29132,16.575,-19.454,-29.329,1.50E+08
29133,18.292,-17.236,-28.766,1.41E+08
29134,18.229,-14.64,-28.589,1.41E+08
29135,16.688,-15.658,-29.54,1.40E+08
29136,19.612,-22.058,-25.286,1.83E+08
29137,17.918,-22.748,-26.513,1.85E+08
29138,20.523,-19.774,-24.552,1.81E+08
29139,17.505,-21.297,-28.745,1.60E+08
29140,19.222,-19.079,-28.182,1.51E+08
29141,20.67,-20.752,-26.822,1.57E+08
29142,19.24,-21.533,-27.831,1.58E+08
29143,7.8973,-24.174,31.01,3.17E+08
29144,12.511,-24.205,29.453,4.40E+08
29145,11.583,-22.391,29.83,3.95E+08
29146,9.2695,-22.431,30.628,3.35E+08
29147,9.4809,-23.572,32.72,2.42E+08
29148,11.444,-25.038,32.097,2.45E+08
29149,13.032,-23.412,31.547,2.38E+08
29150,10.752,-21.976,31.696,2.59E+08
29151,3.1983,-24.197,31.84,1.61E+08
29152,6.9505,-22.446,31.236,2.60E+08
29153,4.6257,-22.502,31.664,1.86E+08
29154,7.1594,-23.587,33.311,1.62E+08
29155,5.2125,-24.441,33.488,1.61E+08
29156,-1.5964,-24.194,31.96,1.17E+08
29157,2.2619,-22.51,31.92,1.09E+08
29158,-0.16243,-22.523,32,9.15E+07
29159,-0.40393,-23.69,33.831,5.12E+07
29160,1.1012,-25.836,33.791,6.65E+07
29161,2.8484,-24.449,33.726,8.66E+07
29162,1.276,-22.311,33.953,5.36E+07
29163,1.0724,-24.1,34.951,7.16E+07
29164,-6.3868,-24.175,31.356,2.37E+08
29165,-2.5821,-22.511,31.896,1.52E+08
29166,-5.0602,-22.436,31.597,2.29E+08
29167,-5.6229,-24.866,33.44,1.16E+08
29168,-2.8211,-23.679,33.71,1.09E+08
29169,-3.8321,-26.509,33.489,9.19E+07
29170,-4.3593,-22.204,33.043,1.48E+08
29171,16.886,-23.905,27.182,4.48E+08
29172,13.854,-22.437,28.846,4.41E+08
29173,16.055,-22.42,27.681,4.35E+08
29174,13.721,-25.084,31.13,2.91E+08
29175,15.308,-23.457,30.58,2.77E+08
29176,15.659,-26.111,30.03,3.09E+08
29177,16.829,-24.405,29.113,3.32E+08
29178,20.755,-23.895,24.356,3.38E+08
29179,18.132,-22.074,26.367,3.97E+08
29180,20.105,-22.07,24.895,3.17E+08
29181,19.214,-25.968,27.656,3.06E+08
29182,20.453,-22.838,26.748,2.99E+08
29183,21.137,-25.515,25.99,3.46E+08
29184,18.916,-24.059,27.817,2.97E+08
29185,24.153,-23.895,20.991,2.19E+08
29186,21.868,-22.407,23.362,2.50E+08
29187,23.248,-22.533,21.989,2.09E+08
29188,22.23,-23.175,25.234,2.45E+08
29189,24.414,-25.534,23.551,2.79E+08
29190,22.914,-25.851,24.476,2.84E+08
29191,23.978,-22.942,23.643,2.40E+08
29192,27.043,-23.559,17.108,1.75E+08
29193,26.156,-21.077,18.436,1.55E+08
29194,24.862,-22.197,20.146,1.75E+08
29195,28.079,-24.367,19.309,1.86E+08
29196,27.125,-22.245,20.44,1.62E+08
29197,26.02,-25.198,21.703,2.30E+08
29198,28.281,-21.931,18.583,1.29E+08
29199,25.584,-22.606,21.795,2.00E+08
29200,29.291,-23.559,12.887,1.52E+08
29201,27.46,-21.077,16.43,1.52E+08
29202,28.79,-21.103,13.969,1.37E+08
29203,30.832,-22.757,14.797,1.15E+08
29204,30.75,-24.976,14.387,1.40E+08
29205,29.358,-24.367,17.288,1.75E+08
29206,29.559,-21.931,16.562,1.21E+08
29207,30.884,-23.559,8.3772,1.37E+08
29208,29.753,-21.103,11.779,1.28E+08
29209,30.549,-21.103,9.5252,1.26E+08
29210,32.416,-24.547,10.009,1.29E+08
29211,31.795,-22.757,12.608,1.19E+08
29212,31.713,-24.976,12.198,1.45E+08
29213,32.198,-22.349,9.9725,1.13E+08
29214,31.788,-23.559,3.6806,1.49E+08
29215,31.176,-21.103,7.2156,1.31E+08
29216,31.627,-21.103,4.871,1.42E+08
29217,33.738,-24.426,5.3681,1.36E+08
29218,33.042,-24.547,7.7009,1.45E+08
29219,32.824,-22.349,7.6646,1.25E+08
29220,33.325,-22.349,5.0623,1.24E+08
29221,31.981,-23.559,-1.0982,1.72E+08
29222,31.903,-21.103,2.4939,1.55E+08
29223,32,-21.097,0.10902,1.69E+08
29224,34.107,-24.367,0.135,1.41E+08
29225,34.013,-24.426,2.9926,1.54E+08
29226,33.6,-22.349,2.6868,1.41E+08
29227,33.997,-22.224,-7.32E-02,1.35E+08
29228,33.696,-26.277,1.3978,1.47E+08
29229,31.46,-23.559,-5.8525,1.84E+08
29230,31.918,-21.097,-2.2826,1.81E+08
29231,31.657,-21.101,-4.6712,1.84E+08
29232,33.169,-24.913,-6.2162,1.42E+08
29233,34.025,-24.367,-2.255,1.54E+08
29234,33.859,-22.645,-4.8999,1.43E+08
29235,33.915,-22.224,-2.4631,1.49E+08
29236,33.348,-25.37,-3.5271,1.52E+08
29237,34.429,-23.87,-5.2902,1.39E+08
29238,32.822,-24.173,-6.5583,1.45E+08
29239,30.237,-23.559,-10.476,1.72E+08
29240,31.22,-21.101,-7.0238,1.84E+08
29241,30.607,-21.096,-9.3394,1.74E+08
29242,32.083,-23.457,-10.62,1.39E+08
29243,33.421,-22.645,-7.2509,1.43E+08
29244,32.385,-24.173,-8.9093,1.45E+08
29245,28.462,-23.54,-14.625,1.58E+08
29246,29.823,-21.096,-11.601,1.64E+08
29247,28.872,-21.095,-13.798,1.60E+08
29248,30.858,-22.815,-14.346,1.33E+08
29249,30.847,-25.01,-12.92,1.34E+08
29250,31.3,-23.457,-12.88,1.35E+08
29251,31.602,-24.173,-11.169,1.38E+08
29252,26.105,-23.422,-18.507,1.64E+08
29253,27.894,-21.076,-15.682,1.61E+08
29254,26.849,-21.082,-17.41,1.63E+08
29255,28.5,-22.716,-18.677,1.38E+08
29256,29.888,-22.796,-16.233,1.39E+08
29257,29.877,-24.991,-14.806,1.35E+08
29258,28.593,-25.485,-17.777,1.32E+08
29259,27.195,-24.253,-19.468,1.40E+08
29260,22.987,-23.439,-22.262,1.78E+08
29261,25.456,-20.982,-19.391,1.73E+08
29262,23.785,-21.155,-21.407,1.76E+08
29263,25.442,-22.404,-22.426,1.52E+08
29264,27.101,-22.616,-20.651,1.51E+08
29265,26.424,-21.029,-21.344,1.48E+08
29266,25.795,-24.153,-21.442,1.51E+08
29267,19.595,-24.247,-25.299,1.85E+08
29268,22.068,-21.273,-23.174,1.82E+08
29269,20.603,-25.424,-26.705,1.46E+08
29270,22.306,-22.25,-25.554,1.57E+08
29271,22.771,-25.295,-24.609,1.52E+08
29272,23.729,-22.522,-24.194,1.58E+08
29273,20.875,-23.032,-26.563,1.58E+08
29274,24.083,-24.271,-23.21,1.57E+08
29275,17.488,-23.486,-28.757,1.61E+08
29276,18.95,-26.114,-27.985,1.49E+08
29277,19.222,-23.722,-27.843,1.60E+08
29278,-20.897,-21.384,-24.235,1.92E+08
29279,-19.597,-23.306,-25.298,2.03E+08
29280,-22.393,-24.001,-22.859,1.67E+08
29281,-22.288,-22.8,-24.94,1.86E+08
29282,-20.083,-23.858,-27.065,1.75E+08
29283,-22.198,-26.319,-24.946,1.61E+08
29284,-20.578,-25.908,-26.553,1.60E+08
29285,-23.261,-24.812,-24.349,1.72E+08
29286,-27.905,-23.698,-15.663,1.03E+08
29287,-25.862,-20.944,-18.846,1.30E+08
29288,-27.651,-21.06,-16.107,1.12E+08
29289,-25.462,-23.185,-19.382,1.29E+08
29290,-28.786,-21.763,-17.708,1.56E+08
29291,-27.281,-22.259,-19.645,1.48E+08
29292,-27.698,-24.597,-18.818,1.32E+08
29293,-29.544,-24.644,-12.295,9.47E+07
29294,-28.601,-21.539,-14.351,1.03E+08
29295,-29.614,-22.773,-12.125,9.95E+07
29296,-29.763,-22.243,-15.967,1.44E+08
29297,-30.563,-21.972,-13.8,1.40E+08
29298,-30.764,-24.052,-13.967,1.39E+08
29299,-28.675,-25.077,-17.078,1.21E+08
29300,-30.839,-24.524,-8.5401,1.02E+08
29301,-30.233,-23.238,-10.488,9.76E+07
29302,-32.243,-26.024,-9.4677,1.30E+08
29303,-31.532,-28.073,-11.185,1.09E+08
29304,-31.869,-23.965,-10.196,1.33E+08
29305,-31.436,-24.517,-12.352,1.34E+08
29306,-31.731,-24.385,-4.1373,1.23E+08
29307,-31.387,-21.153,-6.2328,1.27E+08
29308,-31.796,-20.858,-3.6057,1.49E+08
29309,-30.888,-22.653,-8.3621,1.08E+08
29310,-32.836,-25.439,-7.3254,1.43E+08
29311,-32.766,-22.147,-5.2331,1.60E+08
29312,-32.462,-23.379,-8.054,1.46E+08
29313,-31.997,-23.954,0.46805,1.56E+08
29314,-31.972,-21.304,-1.3417,1.62E+08
29315,-33.418,-22.538,-0.68393,1.88E+08
29316,-33.059,-22.593,-2.9828,1.72E+08
29317,-33.49,-25.184,-0.88567,1.67E+08
29318,-31.58,-23.934,5.1669,1.81E+08
29319,-31.984,-20.427,1.0034,1.83E+08
29320,-31.815,-20.421,3.4363,2.01E+08
29321,-33.383,-21.661,1.6594,2.08E+08
29322,-33.36,-23.242,3.949,1.95E+08
29323,-33.456,-24.306,1.4576,1.88E+08
29324,-30.536,-23.845,9.5672,1.89E+08
29325,-31.472,-21.278,5.7869,2.01E+08
29326,-30.941,-21.271,8.1653,2.05E+08
29327,-32.284,-22.421,8.7107,1.85E+08
29328,-32.355,-27.433,8.5208,1.60E+08
29329,-32.977,-24.099,6.2916,1.89E+08
29330,-32.151,-25.026,9.6129,1.69E+08
29331,-28.611,-23.229,14.332,1.72E+08
29332,-30.323,-20.325,10.224,2.06E+08
29333,-29.509,-20.292,12.379,1.86E+08
29334,-31.641,-21.475,10.761,1.84E+08
29335,-30.241,-24.261,13.836,1.60E+08
29336,-30.554,-21.856,13.834,1.65E+08
29337,-31.508,-24.08,11.663,1.69E+08
29338,-25.968,-24.196,18.7,1.63E+08
29339,-28.223,-20.622,15.081,1.69E+08
29340,-26.997,-20.971,17.18,1.59E+08
29341,-28.903,-24.591,16.509,1.49E+08
29342,-27.49,-22.052,18.864,1.56E+08
29343,-29.215,-22.186,16.507,1.55E+08
29344,-27.882,-24.407,18.588,1.50E+08
29345,-23.266,-23.845,21.971,1.92E+08
29346,-25.802,-21.608,18.928,1.66E+08
29347,-24.2,-21.291,20.937,1.84E+08
29348,-26.254,-22.688,20.581,1.71E+08
29349,-26.646,-25.044,20.305,1.63E+08
29350,-25.818,-27.278,21.376,1.50E+08
29351,-19.691,-23.463,25.225,2.46E+08
29352,-22.756,-20.304,22.498,2.12E+08
29353,-21.063,-20.283,24.09,2.40E+08
29354,-20.135,-21.673,24.871,2.51E+08
29355,-24.794,-21.701,22.127,1.98E+08
29356,-21.462,-21.508,25.48,2.26E+08
29357,-21.882,-24.583,25.315,1.90E+08
29358,-23.214,-20.63,24.381,2.28E+08
29359,-15.398,-24.122,28.052,2.94E+08
29360,-17.959,-22.279,26.486,2.79E+08
29361,-16.251,-22.401,27.566,3.00E+08
29362,-19.327,-22.114,27.145,2.55E+08
29363,-17.529,-21.832,28.474,2.65E+08
29364,-16.963,-24.418,28.734,2.26E+08
29365,-19.748,-25.189,26.981,2.18E+08
29366,-18.466,-26.93,27.711,2.09E+08
29367,-11.006,-24.171,30.048,3.02E+08
29368,-14.109,-22.453,28.722,3.18E+08
29369,-11.941,-22.479,29.689,3.29E+08
29370,-14.831,-24.47,29.904,2.44E+08
29371,-13.484,-22.684,30.725,2.59E+08
29372,-12.603,-24.645,31.203,2.22E+08
29373,-14.051,-26.642,30.586,2.03E+08
29374,-7.4238,-22.43,31.127,2.85E+08
29375,-9.6876,-22.476,30.498,3.20E+08
29376,-10.356,-24.642,32.026,2.13E+08
29377,-8.9345,-22.218,32.529,2.30E+08
29378,-7.9826,-24.86,32.96,1.79E+08
29379,-22.972,-18.292,-22.277,1.78E+08
29380,-19.229,-17.931,-25.578,2.18E+08
29381,-19.716,-19.837,-25.205,2.08E+08
29382,-22.501,-20.533,-22.753,1.74E+08
29383,-22.403,-19.332,-24.842,2.00E+08
29384,-21.058,-17.985,-26.047,2.12E+08
29385,-23.025,-17.18,-24.148,2.11E+08
29386,-26.708,-18.785,-17.626,1.32E+08
29387,-24.34,-20.91,-20.774,1.50E+08
29388,-26.43,-16.243,-21.525,1.89E+08
29389,-24.282,-19.709,-22.904,1.77E+08
29390,-27.734,-19.488,-19.151,1.81E+08
29391,-27.64,-17.271,-19.281,1.88E+08
29392,-26.229,-19.984,-21.089,1.74E+08
29393,-24.904,-17.556,-22.21,1.88E+08
29394,-29.329,-18.123,-12.8,1.11E+08
29395,-29.416,-20.134,-12.597,1.05E+08
29396,-30.475,-17.173,-14.348,1.58E+08
29397,-29.533,-19.604,-16.425,1.59E+08
29398,-29.44,-17.387,-16.554,1.66E+08
29399,-30.333,-19.333,-14.257,1.55E+08
29400,-30.869,-17.857,-8.4333,1.27E+08
29401,-30.221,-19.356,-10.522,1.07E+08
29402,-31.365,-16.395,-12.309,1.55E+08
29403,-32.496,-15.823,-10.316,1.69E+08
29404,-32.038,-18.195,-10.368,1.63E+08
29405,-31.223,-18.556,-12.219,1.52E+08
29406,-31.812,-18.073,-3.4593,1.67E+08
29407,-30.926,-19.868,-8.2198,1.21E+08
29408,-33.13,-16.334,-7.9947,1.82E+08
29409,-32.672,-18.707,-8.0466,1.77E+08
29410,-33.685,-15.813,-5.6176,1.83E+08
29411,-33.339,-17.103,-3.9425,1.99E+08
29412,-32.794,-19.361,-5.0887,1.76E+08
29413,-32.491,-20.594,-7.9096,1.61E+08
29414,-31.958,-17.771,1.6322,2.05E+08
29415,-33.626,-16.807,-1.3016,2.23E+08
29416,-33.44,-19.011,-0.14887,2.16E+08
29417,-33.405,-16.594,0.94485,2.17E+08
29418,-33.081,-19.066,-2.4477,2.00E+08
29419,-31.34,-17.759,6.4651,2.22E+08
29420,-33.316,-19.005,2.285,2.29E+08
29421,-33.281,-16.587,3.3787,2.28E+08
29422,-33.135,-16.744,5.8462,2.26E+08
29423,-32.6,-18.909,6.9937,2.12E+08
29424,-33.292,-20.587,4.5746,2.17E+08
29425,-30.042,-17.719,11.021,2.02E+08
29426,-32.643,-16.737,8.2313,2.18E+08
29427,-32.107,-18.902,9.3788,2.08E+08
29428,-32.295,-16.797,10.069,2.05E+08
29429,-28.089,-18.034,15.329,1.70E+08
29430,-31.315,-18.869,11.539,1.87E+08
29431,-31.502,-16.763,12.229,1.85E+08
29432,-29.545,-16.83,15.981,1.70E+08
29433,-31.312,-15.255,14.055,1.66E+08
29434,-30.228,-19.249,14.612,1.69E+08
29435,-25.361,-18.066,19.515,1.86E+08
29436,-27.339,-19.463,19.102,1.66E+08
29437,-28.381,-17.179,18.113,1.69E+08
29438,-29.064,-19.598,16.745,1.64E+08
29439,-22.092,-17.729,23.15,2.41E+08
29440,-25.683,-15.656,22.205,2.04E+08
29441,-25.774,-19.147,21.136,1.94E+08
29442,-26.816,-16.863,20.147,1.98E+08
29443,-24.194,-18.076,23.39,2.22E+08
29444,-18.53,-17.437,26.089,2.88E+08
29445,-19.404,-19.098,25.446,2.73E+08
29446,-20.639,-16.893,26.777,2.79E+08
29447,-20.762,-18.934,26.091,2.49E+08
29448,-22.514,-18.055,24.993,2.50E+08
29449,-14.539,-17.154,28.506,3.28E+08
29450,-17.528,-18.827,26.773,2.96E+08
29451,-15.803,-18.949,27.826,3.15E+08
29452,-18.766,-16.621,28.107,3.00E+08
29453,-18.889,-18.662,27.421,2.71E+08
29454,-17.09,-18.38,28.75,2.82E+08
29455,-16.959,-15.822,29.028,3.06E+08
29456,-10.125,-17.133,30.356,3.44E+08
29457,-13.699,-18.938,28.919,3.36E+08
29458,-11.518,-18.964,29.855,3.48E+08
29459,-14.98,-18.369,29.826,3.02E+08
29460,-14.849,-15.811,30.104,3.26E+08
29461,-12.736,-15.268,31.593,3.26E+08
29462,-13.068,-19.168,30.907,2.81E+08
29463,-12.042,-17.229,31.308,3.04E+08
29464,-5.4146,-17.131,31.539,2.73E+08
29465,-6.9568,-18.907,31.235,3.07E+08
29466,-9.2297,-18.953,30.64,3.41E+08
29467,-8.4715,-18.694,32.653,2.53E+08
29468,-6.7026,-16.726,33.1,2.42E+08
29469,-8.4915,-16.307,32.636,2.82E+08
29470,-6.2561,-18.674,32.686,2.33E+08
29471,-9.7485,-17.219,32.073,2.96E+08
29472,-0.56534,-17.158,31.995,1.29E+08
29473,-2.0735,-18.99,31.933,1.63E+08
29474,-4.5561,-18.915,31.674,2.42E+08
29475,-1.72,-16.528,33.829,1.41E+08
29476,-4.299,-16.734,33.513,1.76E+08
29477,-2.9777,-17.861,34.631,1.37E+08
29478,-3.8524,-18.682,33.099,1.65E+08
29479,4.2823,-17.154,31.712,6.84E+07
29480,2.782,-18.996,31.879,6.85E+07
29481,0.35929,-19.009,31.998,8.78E+07
29482,0.71154,-16.547,33.872,5.45E+07
29483,1.7972,-18.797,33.931,3.60E+07
29484,2.1107,-14.562,33.697,6.42E+07
29485,2.9131,-16.897,34.071,4.29E+07
29486,9.0336,-17.114,30.698,1.96E+08
29487,7.5056,-18.917,31.107,2.09E+08
29488,5.1888,-18.973,31.577,1.35E+08
29489,8.9898,-18.461,32.178,1.35E+08
29490,7.5895,-16.151,33.043,8.09E+07
29491,7.1003,-17.94,33.598,8.81E+07
29492,5.3153,-16.873,33.747,6.25E+07
29493,13.602,-17.099,28.965,2.78E+08
29494,12.148,-18.86,29.605,3.24E+08
29495,9.8502,-18.9,30.446,2.64E+08
29496,12.317,-15.402,32.008,1.31E+08
29497,13.413,-17.509,31.047,1.66E+08
29498,11.325,-18.445,31.491,1.91E+08
29499,9.9247,-16.134,32.356,1.30E+08
29500,17.878,-17.093,26.54,2.44E+08
29501,14.38,-18.862,28.587,3.49E+08
29502,16.559,-18.845,27.382,3.43E+08
29503,15.632,-17.51,30.005,1.83E+08
29504,17.176,-15.786,29.216,1.80E+08
29505,17.709,-17.915,28.613,2.18E+08
29506,21.696,-17.145,23.522,1.42E+08
29507,18.62,-18.837,26.025,2.84E+08
29508,20.565,-18.833,24.517,2.07E+08
29509,19.753,-17.907,27.236,1.81E+08
29510,21.015,-15.96,26.23,1.70E+08
29511,20.926,-19.601,26.387,2.12E+08
29512,21.643,-17.825,25.928,1.87E+08
29513,25.085,-17.9,19.868,1.34E+08
29514,22.347,-18.893,22.905,1.59E+08
29515,23.698,-19.02,21.503,1.43E+08
29516,22.78,-16.021,24.602,1.80E+08
29517,23.408,-17.885,24.3,1.77E+08
29518,25.352,-17.188,22.367,1.35E+08
29519,25.122,-15.134,22.605,1.43E+08
29520,24.44,-19.429,23.168,1.78E+08
29521,24.369,-16.031,23.903,1.64E+08
29522,28.057,-18.621,15.388,1.27E+08
29523,25.356,-19.715,19.521,1.46E+08
29524,28.417,-16.828,18.937,1.14E+08
29525,27.584,-19.763,19.789,1.39E+08
29526,26.956,-17.883,20.342,1.42E+08
29527,28.74,-19.449,17.931,1.06E+08
29528,28.147,-17.694,17.147,1.14E+08
29529,30.173,-18.646,10.657,1.14E+08
29530,31.207,-16.949,13.998,9.28E+07
29531,31.356,-20.301,13.717,1.06E+08
29532,30.083,-19.474,15.482,1.09E+08
29533,31.709,-17.703,11.846,9.37E+07
29534,31.759,-19.893,11.082,1.01E+08
29535,29.49,-17.72,14.698,1.05E+08
29536,31.423,-18.647,6.0492,1.34E+08
29537,33.276,-17.632,7.496,1.06E+08
29538,32.505,-17.703,9.5934,1.06E+08
29539,32.554,-19.893,8.8293,1.16E+08
29540,31.973,-18.641,1.3099,1.62E+08
29541,33.727,-17.632,5.1531,1.25E+08
29542,33.005,-19.893,6.4864,1.35E+08
29543,33.506,-19.893,3.8841,1.35E+08
29544,32.993,-16.959,3.5279,1.35E+08
29545,31.811,-18.639,-3.4736,1.80E+08
29546,34.172,-17.675,-2.3109,1.39E+08
29547,34.453,-17.676,0.25949,1.39E+08
29548,33.604,-19.887,1.5009,1.51E+08
29549,34.001,-19.762,-1.2591,1.47E+08
29550,33.284,-16.594,-0.7306,1.50E+08
29551,33.09,-16.953,1.1447,1.51E+08
29552,30.935,-18.638,-8.1876,1.73E+08
29553,32.346,-20.999,-9.4518,1.39E+08
29554,33.911,-17.678,-4.6977,1.43E+08
29555,33.684,-20.187,-6.0827,1.44E+08
29556,33.74,-19.766,-3.646,1.50E+08
29557,32.937,-17.813,-6.9487,1.38E+08
29558,29.367,-18.632,-12.71,1.62E+08
29559,31.291,-20.352,-13.232,1.36E+08
29560,32.54,-19.408,-12.348,1.32E+08
29561,31.733,-20.995,-11.766,1.38E+08
29562,32.207,-16.853,-11.268,1.29E+08
29563,32.324,-17.809,-9.2626,1.35E+08
29564,27.34,-18.636,-16.629,1.66E+08
29565,28.953,-20.27,-17.873,1.42E+08
29566,30.341,-20.351,-15.428,1.44E+08
29567,31.59,-19.407,-14.544,1.44E+08
29568,31.257,-16.852,-13.464,1.39E+08
29569,29.797,-17.839,-16.381,1.38E+08
29570,24.651,-18.816,-20.404,1.75E+08
29571,27.638,-16.805,-19.996,1.43E+08
29572,27.904,-20.276,-19.597,1.50E+08
29573,28.748,-17.846,-18.106,1.46E+08
29574,27.226,-18.69,-20.291,1.47E+08
29575,23.152,-19.967,-24.747,1.55E+08
29576,24.576,-20.238,-23.388,1.57E+08
29577,24.066,-18.019,-23.947,1.52E+08
29578,25.558,-18.863,-22.306,1.53E+08
29579,-17.861,-19.853,-26.552,2.28E+08
29580,-18.256,-15.931,-28.925,2.19E+08
29581,-17.67,-18.152,-29.565,1.97E+08
29582,-18.366,-20.406,-28.343,2.02E+08
29583,-19.226,-18.001,-27.424,2.26E+08
29584,-21.081,-21.254,-25.876,2.03E+08
29585,-18.875,-22.312,-28,1.92E+08
29586,-19.735,-19.907,-27.082,2.15E+08
29587,-23.848,-21.95,-23.413,1.70E+08
29588,-25.795,-22.225,-21.598,1.68E+08
29589,-26.212,-24.563,-20.771,1.51E+08
29590,-24.82,-23.962,-22.821,1.57E+08
29591,10.67,-20.663,30.169,3.31E+08
29592,15.18,-20.606,28.17,3.88E+08
29593,14.213,-19.271,30.718,2.23E+08
29594,14.406,-21.643,31.014,2.36E+08
29595,12.126,-20.207,31.163,2.59E+08
29596,6.0303,-20.759,31.427,1.98E+08
29597,8.5495,-21.844,33.002,1.80E+08
29598,9.8206,-20.247,31.978,2.00E+08
29599,7.931,-19.726,33.397,1.51E+08
29600,1.2756,-20.828,31.975,7.48E+07
29601,6.2296,-21.9,33.447,1.07E+08
29602,4.2827,-22.753,33.624,1.03E+08
29603,2.7103,-20.615,33.851,6.48E+07
29604,5.6111,-19.782,33.842,8.17E+07
29605,3.8262,-18.715,33.991,5.30E+07
29606,-3.6391,-20.766,31.792,1.94E+08
29607,-0.79739,-18.379,33.889,8.73E+07
29608,-1.3916,-22.008,33.826,7.48E+07
29609,0.28831,-20.629,33.948,7.08E+07
29610,-2.0551,-19.712,34.691,8.31E+07
29611,-2.9298,-20.533,33.159,1.14E+08
29612,-8.3942,-20.737,30.879,3.10E+08
29613,-7.6232,-20.479,32.842,2.20E+08
29614,-6.6714,-23.121,33.272,1.70E+08
29615,-5.4078,-20.458,32.875,1.99E+08
29616,19.342,-20.585,25.493,3.03E+08
29617,16.404,-19.254,29.538,2.19E+08
29618,16.596,-21.626,29.833,2.31E+08
29619,18.481,-19.659,28.146,2.50E+08
29620,19.654,-21.353,27.298,2.89E+08
29621,18.117,-22.574,28.366,2.84E+08
29622,22.66,-20.708,22.595,1.87E+08
29623,21.613,-21.35,25.811,2.24E+08
29624,22.33,-19.573,25.352,1.97E+08
29625,23.362,-21.117,24.22,2.20E+08
29626,26.276,-20.883,21.487,1.54E+08
29627,25.648,-19.003,22.04,1.45E+08
29628,24.736,-21.244,22.842,1.93E+08
29629,-32.111,-20.206,-10.159,1.57E+08
29630,-31.295,-20.566,-12.01,1.45E+08
29631,-31.929,-22.094,-10.022,1.41E+08
29632,-31.496,-22.646,-12.177,1.42E+08
29633,-16.737,-20.61,27.274,3.03E+08
29634,-19.797,-20.324,26.827,2.59E+08
29635,-17.998,-20.041,28.155,2.68E+08
29636,-12.845,-20.758,29.309,3.32E+08
29637,-16.277,-20.163,29.212,2.89E+08
29638,-15.711,-22.749,29.472,2.51E+08
29639,-14.364,-20.963,30.293,2.66E+08
29640,-12.192,-20.988,31.245,2.76E+08
29641,-11.31,-22.949,31.723,2.40E+08
29642,-9.8888,-20.525,32.226,2.57E+08
29643,-11.166,-19.049,31.646,2.99E+08
29644,-73.339,-4.4692,-69.49,8.48E+05
29645,-74.955,-6.4432,-68.044,8.57E+05
29646,-76.023,-7.047,-69.453,4.77E+05
29647,-76.441,-4.7962,-68.743,5.03E+05
29648,-73.142,-6.9742,-71.432,4.24E+05
29649,-72.529,-4.2991,-71.541,4.42E+05
29650,-75.105,-4.911,-70.435,4.74E+05
29651,-75.166,-7.2267,-71.128,4.10E+05
29652,-76.164,-3.5873,-68.915,7.42E+05
29653,-72.252,-3.0903,-71.713,6.24E+05
29654,-74.828,-3.7021,-70.607,6.78E+05
29655,-63.796,-6.704,-64.428,1.97E+06
29656,-63.997,-5.1604,-65.772,2.27E+06
29657,-65.275,-6.2635,-68.224,1.18E+06
29658,-63.027,-3.626,-67.133,1.49E+06
29659,-63.027,-8.876,-67.133,1.18E+06
29660,-62.784,-6.7903,-65.898,1.35E+06
29661,-63.244,-7.1357,-68.787,1.36E+06
29662,-62.032,-5.626,-67.831,1.16E+06
29663,-63.236,-5.0549,-69.535,1.37E+06
29664,-65.477,-7.1986,-59.912,2.26E+06
29665,-64.58,-5.7257,-61.143,2.30E+06
29666,-63.858,-5.6125,-63.271,2.54E+06
29667,-63.628,-7.7046,-59.625,2.73E+06
29668,-62.548,-6.113,-61.544,1.89E+06
29669,-62.686,-7.2423,-63.446,1.83E+06
29670,-62.539,-8.0671,-61.534,2.04E+06
29671,-69.359,-7.4549,-57.968,2.06E+06
29672,-68.299,-5.7682,-58.179,2.28E+06
29673,-66.135,-5.7682,-59.302,1.79E+06
29674,-67.518,-9.3705,-56.836,2.22E+06
29675,-66.139,-5.9672,-56.517,2.06E+06
29676,-68.333,-7.6448,-56.519,1.58E+06
29677,-65.243,-7.7471,-57.899,2.23E+06
29678,-66.405,-8.0078,-55.376,2.42E+06
29679,-72.281,-6.3169,-58.346,1.76E+06
29680,-70.285,-5.982,-57.936,2.35E+06
29681,-71.665,-9.5843,-56.061,1.74E+06
29682,-73.127,-9.5843,-57.24,2.15E+06
29683,-70.296,-7.8586,-56.303,1.65E+06
29684,-72.697,-7.553,-55.719,1.67E+06
29685,-71.1,-6.0886,-56.51,1.61E+06
29686,-73.702,-7.5053,-57.902,1.93E+06
29687,-76.283,-6.0224,-63.853,1.99E+06
29688,-77.063,-7.4353,-63.995,1.48E+06
29689,-77.956,-5.6728,-64.562,9.99E+05
29690,-78.163,-7.8205,-66.057,1.01E+06
29691,-77.152,-7.8121,-68.017,1.28E+06
29692,-77.57,-5.5613,-67.307,1.13E+06
29693,-71.242,-4.6303,-58.048,2.00E+06
29694,-74.561,-4.9008,-59.864,2.09E+06
29695,-74.024,-2.9826,-57.585,1.79E+06
29696,-73.594,-6.2012,-56.063,1.54E+06
29697,-74.335,-4.3576,-56.955,1.63E+06
29698,-75.942,-4.2838,-58.295,1.21E+06
29699,-71.997,-4.7369,-56.854,1.39E+06
29700,-74.599,-6.1536,-58.246,1.70E+06
29701,-66.899,-4.2954,-58.778,1.98E+06
29702,-68.406,-2.6477,-56.579,1.81E+06
29703,-67.026,-4.4944,-56.26,2.26E+06
29704,-69.221,-6.1719,-56.261,1.85E+06
29705,-70.024,-4.402,-56.468,1.90E+06
29706,-64.052,-4.1822,-62.395,2.08E+06
29707,-63.418,-2.6477,-60.111,1.55E+06
29708,-64.959,-4.4944,-57.462,1.99E+06
29709,-64.063,-6.2743,-58.843,2.19E+06
29710,-62.983,-4.6826,-60.762,1.36E+06
29711,-63.647,-4.461,-58.456,1.95E+06
29712,-60.925,-2.5345,-64.197,1.54E+06
29713,-62.733,-2.5345,-66.017,1.81E+06
29714,-62.351,-4.5694,-62.881,1.83E+06
29715,-62.49,-5.6988,-64.783,1.72E+06
29716,-61.738,-4.5345,-66.715,1.51E+06
29717,-77.166,-4.2195,-59.577,1.79E+06
29718,-76.929,-6.2495,-61.438,1.91E+06
29719,-77.822,-4.487,-62.004,1.48E+06
29720,-75.823,-6.0892,-59.528,2.29E+06
29721,-64.284,-7.1473,-70.014,5.54E+05
29722,-66.154,-7.4243,-71.132,5.74E+05
29723,-66.304,-5.0321,-71.458,6.45E+05
29724,-64.276,-5.0665,-70.762,5.43E+05
29725,36.233,-8.8013,-31.641,1.22E+08
29726,34.551,-10.325,-30.521,3.75E+07
29727,34.632,-8.8536,-30.778,1.18E+08
29728,36.443,-11.972,-29.877,7.34E+07
29729,36.658,-8.367,-29.85,1.06E+08
29730,34.675,-9.2942,-29.535,8.12E+07
29731,35.953,-10.235,-27.949,7.33E+07
29732,36.283,-8.5967,-34.237,1.19E+08
29733,34.579,-7.605,-32.283,1.96E+08
29734,34.746,-7.7525,-34.095,1.49E+08
29735,35.48,-5.9855,-31.265,1.87E+08
29736,35.802,-5.9425,-33.853,1.81E+08
29737,36.604,-7.0175,-31.04,1.90E+08
29738,34.603,-6.5749,-32.935,1.74E+08
29739,36.916,-5.0473,-31.796,1.90E+08
29740,34.85,-9.1409,-35.348,6.97E+07
29741,35.802,-11.942,-36.233,5.54E+07
29742,35.905,-7.0892,-35.154,9.29E+07
29743,35.772,-8.3636,-37.272,6.33E+07
29744,33.874,-9.4057,-36.631,4.51E+07
29745,32.896,-9.1314,-31.09,1.11E+08
29746,34.708,-12.095,-29.893,7.79E+07
29747,32.939,-9.4172,-29.551,7.39E+07
29748,31.922,-11.026,-29.248,7.29E+07
29749,32.326,-12.228,-30.332,7.07E+07
29750,33.145,-7.5532,-33.513,1.33E+08
29751,33.88,-6.1605,-30.68,1.75E+08
29752,35.004,-7.1925,-30.456,1.81E+08
29753,31.907,-6.5483,-31.31,1.69E+08
29754,33.02,-8.1197,-30.141,1.58E+08
29755,33.002,-6.7498,-32.35,1.67E+08
29756,32.037,-6.6747,-35.432,1.28E+08
29757,34.368,-6.4651,-34.925,1.23E+08
29758,34.235,-7.7396,-37.044,9.78E+07
29759,32.337,-8.7816,-36.403,7.99E+07
29760,33.17,-7.0975,-34.007,1.17E+08
29761,34.551,-10.325,-50.521,1.51E+07
29762,34.632,-8.8536,-50.778,3.00E+07
29763,36.389,-10.295,-49.246,1.63E+07
29764,36.408,-13.004,-50.423,9.72E+06
29765,33.954,-9.2345,-49.492,3.43E+07
29766,36.295,-8.6015,-54.318,1.83E+07
29767,34.591,-7.5824,-52.363,4.31E+07
29768,34.758,-7.7903,-54.169,2.73E+07
29769,34.001,-6.2759,-53.871,3.86E+07
29770,35.693,-6.2092,-51.647,4.28E+07
29771,36.099,-6.7502,-54.965,1.96E+07
29772,35.876,-5.4677,-53.62,3.09E+07
29773,37.033,-4.9884,-52.167,3.23E+07
29774,34.85,-9.1409,-55.348,1.84E+07
29775,36.19,-7.8978,-56.183,7.83E+06
29776,37.33,-8.9948,-56.826,7.85E+06
29777,34.03,-9.6499,-56.179,1.54E+07
29778,37.264,-10.069,-56.359,9.91E+06
29779,36.575,-10.862,-55.347,1.25E+07
29780,32.896,-9.1314,-51.09,3.08E+07
29781,34.653,-10.418,-49.262,1.75E+07
29782,34.672,-13.127,-50.439,1.21E+07
29783,32.218,-9.3575,-49.508,3.63E+07
29784,32.555,-11.784,-50.101,2.31E+07
29785,33.145,-7.5532,-53.513,3.42E+07
29786,31.457,-6.2441,-51.116,7.45E+07
29787,32.388,-6.4518,-53.203,5.04E+07
29788,34.08,-6.3851,-50.979,5.41E+07
29789,32.299,-8.06,-50.098,5.98E+07
29790,32.555,-6.7995,-54.86,3.39E+07
29791,34.653,-7.2738,-55.954,1.76E+07
29792,32.493,-9.0258,-55.95,2.48E+07
29793,-62.834,-4.4692,79.116,3.65E+07
29794,-61.247,-6.4977,80.604,2.74E+07
29795,-64.948,-4.2991,78.488,2.35E+07
29796,-64.85,-7.0016,79.299,1.98E+07
29797,-63.942,-4.7461,81.146,2.41E+07
29798,-63.648,-7.1663,81.529,2.04E+07
29799,-61.782,-4.5998,82.024,2.37E+07
29800,-65.143,-3.0903,78.228,3.51E+07
29801,-64.137,-3.5373,80.885,3.32E+07
29802,-61.978,-3.391,81.763,3.34E+07
29803,-51.704,-7.4362,74.143,7.75E+07
29804,-52.006,-5.7517,73.107,7.14E+07
29805,-53.98,-7.201,70.447,5.64E+07
29806,-53.315,-5.7517,71.05,4.90E+07
29807,-50.737,-9.354,72.212,5.51E+07
29808,-50.513,-7.5051,70.781,5.40E+07
29809,-52.471,-7.1079,69.468,5.88E+07
29810,-51.511,-5.7879,70.983,5.42E+07
29811,-50.442,-7.6658,73.286,5.18E+07
29812,-50.315,-5.7394,72.46,5.23E+07
29813,-51.824,-6.3144,77.089,8.34E+07
29814,-51.59,-5.9799,75.066,8.44E+07
29815,-50.054,-7.8941,75.224,6.89E+07
29816,-50.042,-6.3246,76.399,6.59E+07
29817,-50.657,-8.0654,77.533,6.82E+07
29818,-51.617,-4.6299,76.03,7.83E+07
29819,-53.135,-4.9008,79.491,5.80E+07
29820,-50.914,-2.9822,78.76,5.22E+07
29821,-50.307,-4.9746,77.323,6.39E+07
29822,-50.922,-6.7154,78.458,5.97E+07
29823,-51.234,-4.6314,80.18,5.85E+07
29824,-52.724,-4.2954,71.768,5.76E+07
29825,-50.401,-2.6477,73.077,6.59E+07
29826,-51.175,-4.3316,71.847,6.29E+07
29827,-50.106,-6.2095,74.15,5.76E+07
29828,-50.094,-4.6401,75.325,6.06E+07
29829,-49.979,-4.2831,73.324,6.18E+07
29830,-58.623,-6.723,69.169,7.44E+07
29831,-59.943,-5.1611,69.486,7.96E+07
29832,-62.275,-6.2635,70.972,6.83E+07
29833,-61.384,-3.6259,68.637,5.87E+07
29834,-61.669,-8.8759,68.105,5.76E+07
29835,-59.13,-6.6039,67.83,6.66E+07
29836,-62.177,-5.8826,67.3,6.21E+07
29837,-63.174,-7.2247,68.999,5.90E+07
29838,-63.809,-4.5026,68.357,5.41E+07
29839,-55.282,-5.7447,69.663,5.40E+07
29840,-57.465,-5.6322,69.129,7.09E+07
29841,-56.696,-7.075,67.52,5.56E+07
29842,-54.331,-7.101,68.012,5.95E+07
29843,-56.95,-6.0772,81.556,2.19E+07
29844,-57.095,-7.6767,82.46,1.93E+07
29845,-57.548,-5.8731,83.381,1.72E+07
29846,-59.035,-7.7335,83.64,2.26E+07
29847,-62.113,-7.9859,82.53,2.26E+07
29848,-60.247,-5.4194,83.026,2.14E+07
29849,-52.089,-6.6517,79.787,3.77E+07
29850,-52.401,-4.5677,81.51,3.62E+07
29851,-54.561,-6.4367,82.099,3.32E+07
29852,-55.015,-4.6331,83.02,3.35E+07
29853,-52.744,-7.0154,82.053,3.10E+07
29854,-56.575,-4.1829,69.246,5.98E+07
29855,-54.355,-2.6477,68.416,5.09E+07
29856,-55.879,-5.6256,67.885,4.44E+07
29857,-53.513,-5.6516,68.378,4.87E+07
29858,-52.553,-4.3316,69.892,4.82E+07
29859,-58.643,-2.5352,66.289,7.42E+07
29860,-60.298,-2.5352,68.248,5.94E+07
29861,-56.521,-2.5352,67.971,6.09E+07
29862,-58.044,-5.5131,67.44,6.01E+07
29863,-61.091,-4.7918,66.911,5.71E+07
29864,-64.306,-7.2364,70.143,4.51E+07
29865,-65.484,-4.8775,72.345,4.04E+07
29866,-64.941,-4.5142,69.5,4.00E+07
29867,-65.096,-7.2765,71.981,4.37E+07
29868,-6.4092,33.77,-49.403,1.09E+07
29869,-9.6172,31.351,-49.17,1.35E+07
29870,-7.8841,29.847,-49.648,3.52E+07
29871,-8.4488,33.485,-49.311,9.75E+06
29872,-8.3109,31.108,-46.52,1.96E+07
29873,-7.3685,33.493,-46.771,1.04E+07
29874,-6.4955,31.48,-46.559,2.04E+07
29875,-8.0815,29.621,-47.964,3.29E+07
29876,-5.6467,29.535,-47.684,4.59E+07
29877,-5.8984,33.277,-48.218,1.04E+07
29878,-6.4972,36.813,-52.461,4.56E+06
29879,-7.9862,35.395,-50.358,5.77E+06
29880,-6.3951,38.456,-51.605,5.31E+06
29881,-7.8408,36.884,-49.719,4.59E+06
29882,-5.4357,35.279,-48.931,6.18E+06
29883,-5.1119,37.382,-49.094,4.32E+06
29884,-6.7437,36.263,-56.875,5.30E+06
29885,-9.8362,37.094,-54.081,1.49E+06
29886,-8.5368,36.706,-52.181,3.63E+06
29887,-8.6832,36.496,-56.487,2.87E+06
29888,-8.3989,39.053,-54.874,4.61E+06
29889,-6.9458,39.18,-53.67,3.98E+06
29890,-6.9848,38.929,-56.053,4.11E+06
29891,-8.3915,37.608,-51.784,2.28E+06
29892,-5.9324,37.421,-56.31,2.56E+06
29893,-6.7256,32.373,-59.106,1.73E+07
29894,-8.3791,34.948,-58.22,6.20E+06
29895,-7.1524,33.926,-61.378,4.80E+06
29896,-5.3606,33.007,-59.991,9.18E+06
29897,-8.5369,36.026,-60.178,5.82E+06
29898,-5.3717,35.998,-60.237,4.42E+06
29899,-5.6283,36.173,-58.194,6.02E+06
29900,-7.9669,32.873,-59.929,7.76E+06
29901,-9.75,31.058,-59.005,1.72E+07
29902,-8.6651,32.823,-59.061,1.61E+07
29903,-6.5654,29.692,-61.29,1.97E+07
29904,-10.366,28.996,-59.78,1.59E+07
29905,-5.8178,28.353,-58.954,3.82E+07
29906,-5.6466,30.786,-60.115,1.68E+07
29907,-8.2012,28.286,-59.262,2.90E+07
29908,-7.665,27.549,-57.628,3.90E+07
29909,-8.2528,30.651,-60.053,1.95E+07
29910,-13.036,34.021,-58.728,6.38E+06
29911,-11.403,33.775,-58.823,5.23E+06
29912,-12.525,31.825,-61.616,5.92E+06
29913,-13.104,29.951,-59.982,9.93E+06
29914,-13.84,33.259,-60.42,5.25E+06
29915,-11.561,34.759,-60.504,4.01E+06
29916,-10.991,31.606,-60.256,8.91E+06
29917,-13.105,36.842,-55.682,4.06E+06
29918,-11.952,35.505,-57.77,4.92E+06
29919,-12.511,38.166,-58.257,3.99E+06
29920,-14.388,35.089,-59.656,4.75E+06
29921,-12.109,36.59,-59.74,3.90E+06
29922,-14.761,37.203,-58.123,3.80E+06
29923,-14.532,36.879,-59.961,3.02E+06
29924,-13.279,36.368,-51.518,4.97E+06
29925,-11.325,36.435,-51.631,3.89E+06
29926,-11.472,36.753,-55.93,2.90E+06
29927,-11.187,39.049,-54.262,4.68E+06
29928,-12.031,38.845,-56.199,3.31E+06
29929,-12.031,39.253,-52.324,3.54E+06
29930,-11.18,37.604,-51.172,2.50E+06
29931,-13.911,38.01,-50.632,1.23E+06
29932,-14.197,38.166,-51.757,1.97E+06
29933,-13.148,33.105,-49.217,1.20E+07
29934,-11.98,35.059,-50.088,6.28E+06
29935,-11.834,36.553,-49.443,5.14E+06
29936,-14.577,34.711,-48.588,6.18E+06
29937,-14.566,36.96,-48.903,3.89E+06
29938,-10.629,29.618,-49.77,3.38E+07
29939,-12.195,29.336,-49.944,2.56E+07
29940,-11.194,33.234,-49.246,1.26E+07
29941,-11.056,30.851,-46.559,2.04E+07
29942,-12.463,32.402,-46.722,1.24E+07
29943,-12.829,30.34,-46.505,2.34E+07
29944,-13.322,28.923,-48.514,2.55E+07
29945,-10.827,29.364,-48.002,3.43E+07
29946,-14.045,30.774,-47.795,1.48E+07
29947,-13.791,32.783,-48.19,1.12E+07
29948,-10.462,28.173,-51.012,4.11E+07
29949,-9.4411,26.423,-50.95,6.24E+07
29950,-9.0937,28.01,-48.774,5.30E+07
29951,-6.6589,27.924,-48.494,5.80E+07
29952,-13.154,27.364,-49.545,2.98E+07
29953,-11.007,26.217,-51.209,5.36E+07
29954,-10.659,27.804,-49.034,4.10E+07
29955,-9.8879,32.885,-47.035,1.44E+07
29956,-8.9454,35.27,-47.285,4.11E+06
29957,-11.294,34.436,-47.198,5.81E+06
29958,-9.8805,36.659,-49.521,4.73E+06
29959,-12.623,34.817,-48.666,4.95E+06
29960,-7.4753,35.054,-48.733,4.79E+06
29961,-10.034,38.176,-56.5,5.31E+06
29962,-10.878,37.973,-58.437,4.29E+06
29963,-8.6202,38.053,-57.679,4.79E+06
29964,-10.476,36.397,-59.92,3.46E+06
29965,-7.5678,36.544,-57.936,3.06E+06
29966,-9.9063,33.244,-59.671,7.09E+06
29967,6.3319,34.664,-57.18,1.25E+07
29968,9.75,32.49,-58.094,1.25E+07
29969,7.5925,31.188,-58.01,2.07E+07
29970,8.5084,34.51,-57.303,1.25E+07
29971,6.976,30.904,-59.258,2.13E+07
29972,8.8894,33.946,-59.164,1.32E+07
29973,5.9365,32.966,-59.499,1.41E+07
29974,6.9625,34.996,-58.54,1.31E+07
29975,8.8472,31.745,-59.505,1.28E+07
29976,6.2893,36.091,-53.937,7.76E+06
29977,7.8214,35.633,-55.979,6.65E+06
29978,4.6663,37.254,-57.433,6.03E+06
29979,5.4711,37.135,-54.515,7.96E+06
29980,6.2755,36.295,-57.451,7.32E+06
29981,6.4492,34.426,-50.864,1.12E+07
29982,10.045,34.399,-50.845,1.20E+07
29983,9.7074,35.788,-52.578,7.16E+06
29984,8.4657,36.095,-54.134,6.66E+06
29985,8.3418,38.301,-53.583,1.00E+07
29986,7.498,38.505,-51.646,8.81E+06
29987,5.6373,35.109,-49.847,9.98E+06
29988,8.5425,36.488,-50.151,7.82E+06
29989,5.793,37.354,-49.888,6.74E+06
29990,6.1154,37.053,-52.669,9.30E+06
29991,9.5606,32.85,-50.186,1.15E+07
29992,7.3661,31.474,-50.162,2.38E+07
29993,7.9593,32.564,-48.674,1.40E+07
29994,5.1529,33.771,-48.888,1.13E+07
29995,8.0581,35.15,-49.192,8.16E+06
29996,5.828,32.077,-48.483,1.68E+07
29997,12.819,34.805,-51.172,1.16E+07
29998,10.962,31.442,-50.168,2.07E+07
29999,13.488,30.065,-48.664,2.99E+07
30000,11.555,32.533,-48.668,1.50E+07
30001,13.852,33.505,-48.752,1.33E+07
30002,14.221,35.273,-50.359,1.04E+07
30003,11.654,35.119,-49.186,1.17E+07
30004,12.997,36.011,-54.93,8.26E+06
30005,11.239,36.058,-54.654,6.25E+06
30006,11.116,38.501,-54.063,9.68E+06
30007,10.272,38.704,-52.126,8.25E+06
30008,12.569,38.627,-52.86,8.40E+06
30009,13.883,36.842,-51.805,5.91E+06
30010,11.316,36.688,-50.632,6.18E+06
30011,13.504,37.277,-53.609,8.22E+06
30012,12.997,33.716,-57.771,1.11E+07
30013,11.755,35.386,-56.387,9.21E+06
30014,13.045,38.008,-57.012,9.11E+06
30015,14.363,33.657,-58.628,1.12E+07
30016,12.136,34.994,-58.479,9.19E+06
30017,14.458,36.411,-56.953,9.29E+06
30018,14.336,36.279,-59.153,6.67E+06
30019,14.02,36.909,-55.378,9.69E+06
30020,10.324,30.575,-57.814,2.02E+07
30021,11.999,30.238,-57.657,1.69E+07
30022,11.239,33.967,-57.649,8.50E+06
30023,12.026,29.441,-59.052,1.69E+07
30024,13.847,31.971,-59.375,1.10E+07
30025,11.621,33.307,-59.227,8.94E+06
30026,11.578,31.106,-59.569,1.24E+07
30027,14.411,29.494,-59.195,1.09E+07
30028,9.8416,29.196,-56.871,2.52E+07
30029,9.868,28.25,-58.563,2.62E+07
30030,7.5496,29.075,-58.833,2.67E+07
30031,6.2093,27.66,-58.747,3.90E+07
30032,7.9785,27.397,-57.928,4.01E+07
30033,9.4208,29.916,-59.08,2.16E+07
30034,13.343,27.797,-56.926,2.02E+07
30035,10.835,26.539,-55.443,4.39E+07
30036,11.544,27.993,-58.293,2.50E+07
30037,9.654,27.141,-57.658,3.53E+07
30038,13.929,28.047,-58.437,1.86E+07
30039,11.294,28.727,-48.885,2.94E+07
30040,6.8513,28.847,-49.302,5.00E+07
30041,9.3605,31.195,-48.889,2.51E+07
30042,8.9402,28.726,-48.805,4.84E+07
30043,11.437,27.791,-50.696,3.09E+07
30044,9.1106,28.289,-50.702,4.77E+07
30045,7.2292,30.708,-48.698,2.72E+07
30046,9.8739,38.291,-55.603,9.99E+06
30047,11.288,38.167,-56.782,8.67E+06
30048,10.379,35.153,-58.249,7.27E+06
30049,7.6476,37.043,-54.689,6.58E+06
30050,8.452,36.203,-57.625,7.18E+06
30051,12.263,37.068,-55.148,7.62E+06
30052,3.6358,41.175,121.97,4.08E+06
30053,7.1083,42.739,123.33,2.76E+06
30054,4.4125,42.715,123.32,2.95E+06
30055,3.9509,38.944,121.28,3.45E+06
30056,6.3237,38.969,121.43,3.31E+06
30057,4.8082,40.601,123.6,2.90E+06
30058,7.1979,40.279,123.4,2.95E+06
30059,6.0559,42.849,124.57,2.12E+06
30060,-0.94541,41.154,121.95,4.40E+06
30061,1.998,42.686,123.3,3.05E+06
30062,-0.35225,42.902,123.43,2.92E+06
30063,1.5364,38.922,121.26,3.76E+06
30064,2.3937,40.579,123.58,3.15E+06
30065,0.15737,41.031,124.21,2.77E+06
30066,0.10281,39.433,122.99,3.01E+06
30067,-0.80833,39.12,121.28,3.55E+06
30068,-6.3698,41.294,122.11,4.79E+06
30069,-5.3099,43.957,123.91,2.10E+06
30070,-2.5189,42.902,123.43,3.03E+06
30071,-5.0631,39.097,121.71,3.20E+06
30072,-2.0093,41.031,124.21,2.85E+06
30073,-3.971,42.52,124.48,2.48E+06
30074,-2.0639,39.433,122.99,3.07E+06
30075,-3.9358,40.028,123.57,2.93E+06
30076,-2.975,39.12,121.28,3.58E+06
30077,-8.5676,44.164,123.97,2.38E+06
30078,-8.3209,39.241,121.88,3.37E+06
30079,-9.7479,39.799,123.69,3.03E+06
30080,-7.2287,42.664,124.64,2.84E+06
30081,-9.698,41.738,124.62,3.04E+06
30082,-10.286,38.708,121.64,3.10E+06
30083,-7.1936,40.172,123.73,3.22E+06
30084,-7.5077,47.066,111.84,2.60E+07
30085,-6.5312,42.71,112.69,1.22E+07
30086,-4.9141,46.208,111.75,2.94E+07
30087,-5.15,44.165,112.03,2.05E+07
30088,-10.254,43.132,110.68,1.92E+07
30089,-8.6841,44.219,109.16,2.02E+07
30090,-8.1782,42.423,112.04,1.48E+07
30091,-6.5015,45.945,110.15,2.49E+07
30092,-8.4825,46.106,110.57,2.60E+07
30093,-6.1957,43.578,110.19,1.82E+07
30094,-5.7941,42.142,111.66,1.26E+07
30095,-7.5077,51.108,114.4,2.35E+07
30096,-4.9141,48.583,112.31,3.66E+07
30097,-4.8867,50.495,113.66,3.00E+07
30098,-10.254,49.842,110.93,2.89E+07
30099,-6.134,50.723,110.89,3.23E+07
30100,-8.6597,51.089,110.18,2.79E+07
30101,-6.1492,52.015,113.33,2.55E+07
30102,-8.2648,51.83,112.21,2.58E+07
30103,-6.5015,48.302,110.56,2.97E+07
30104,-8.4825,48.463,110.98,3.12E+07
30105,-7.5077,49.601,123.11,4.80E+06
30106,-4.7167,46.223,124.25,3.99E+06
30107,-5.1112,48.752,123.61,4.71E+06
30108,-6.1688,45.629,125.55,3.04E+06
30109,-8.0775,50.012,124.52,2.63E+06
30110,-8.6381,44.704,125.53,2.56E+06
30111,-8.3114,46.763,126.04,3.08E+06
30112,-5.9965,48.005,125.64,3.25E+06
30113,-5.6288,49.864,124.73,2.64E+06
30114,-8.8105,48.713,126.02,2.82E+06
30115,8.0382,47.04,124.16,2.54E+06
30116,5.4705,44.601,124.09,3.24E+06
30117,10.583,43.07,125.33,2.10E+06
30118,8.2559,41.995,124.45,1.98E+06
30119,7.1139,44.565,125.62,2.22E+06
30120,8.8552,46.324,125.58,1.81E+06
30121,9.1168,44.472,126.22,1.91E+06
30122,7.7089,51.093,121.62,5.67E+06
30123,5.3425,47.012,124.17,2.72E+06
30124,5.1957,50.442,122.4,5.36E+06
30125,4.1359,48.833,123.57,4.18E+06
30126,8.08,51.122,126.44,2.33E+06
30127,10.455,50.025,124.89,3.02E+06
30128,6.8123,51.765,123.01,2.87E+06
30129,8.8561,51.691,123.68,2.74E+06
30130,6.9858,46.899,125.23,2.40E+06
30131,8.7271,48.658,125.19,2.93E+06
30132,6.4138,49.833,124.79,3.24E+06
30133,7.7411,44.994,111.83,4.74E+07
30134,7.5077,49.601,112.89,3.74E+07
30135,4.9555,46.137,111.75,5.24E+07
30136,5.0472,48.555,112.3,4.95E+07
30137,10.254,49.019,110.8,4.85E+07
30138,8.4064,48.002,109.76,5.18E+07
30139,6.2301,50.021,110.84,4.54E+07
30140,8.6763,50.023,111.01,4.45E+07
30141,5.6568,47.41,109.98,5.01E+07
30142,6.3603,44.272,110.6,5.04E+07
30143,8.611,45.297,110.16,5.56E+07
30144,6.691,48.951,109.41,4.98E+07
30145,6.1155,41.526,113.64,3.20E+07
30146,5.1889,43.792,112.15,4.40E+07
30147,10.487,42.004,111.1,4.91E+07
30148,8.7242,40.248,112.37,4.09E+07
30149,6.5938,41.966,110.98,4.25E+07
30150,8.8445,42.991,110.54,4.80E+07
30151,-7.5077,52.158,119.07,1.08E+07
30152,-4.8867,51.815,115.71,2.26E+07
30153,-4.8892,52.241,117.66,1.52E+07
30154,-6.1492,53.393,115.28,1.55E+07
30155,-8.2648,53.208,114.17,1.60E+07
30156,-8.5816,54.001,117.62,1.18E+07
30157,-5.9232,53.502,119.01,1.14E+07
30158,-6.5624,54.317,117.11,1.21E+07
30159,-9.3099,53.41,115.67,1.46E+07
30160,-8.4577,54.386,116.05,1.16E+07
30161,-5.1112,50.69,122.13,6.86E+06
30162,-4.8892,51.895,120.08,9.87E+06
30163,-8.5816,53.593,119.97,5.24E+06
30164,-5.9232,53.094,121.37,5.96E+06
30165,-8.0775,51.967,123.14,5.83E+06
30166,-5.6288,51.819,123.36,5.63E+06
30167,-8.6483,53.715,121.76,5.05E+06
30168,7.5077,52.158,116.93,1.66E+07
30169,4.9945,51.797,120.34,8.67E+06
30170,5.0472,52.247,118.18,1.46E+07
30171,10.254,53.393,120.75,6.86E+06
30172,8.7029,52.823,117.15,1.02E+07
30173,6.8341,54.039,118.03,8.21E+06
30174,8.7488,54.073,118.44,7.86E+06
30175,6.611,53.166,121.04,7.57E+06
30176,8.6549,53.091,121.72,6.91E+06
30177,4.8343,53.826,119.58,8.08E+06
30178,5.0472,50.543,113.71,3.52E+07
30179,5.0472,51.84,115.77,2.37E+07
30180,6.2301,51.976,112.22,2.58E+07
30181,8.6763,51.978,112.39,2.14E+07
30182,8.7029,52.415,114.79,2.33E+07
30183,6.8341,53.631,115.67,2.04E+07
30184,5.5625,53.157,114.25,2.34E+07
30185,1.5175,40.847,114.46,1.30E+07
30186,3.3298,42.398,112.89,2.69E+07
30187,2.156,40.625,112.33,1.58E+07
30188,2.8785,39.072,114.91,1.18E+07
30189,5.0155,38.205,115.45,1.12E+07
30190,6.8651,39.155,113.49,2.37E+07
30191,4.7347,40.873,112.1,2.48E+07
30192,4.3323,38.506,113.35,1.53E+07
30193,-3.3879,41.154,114.05,5.69E+06
30194,0.591,42.827,112.62,2.55E+07
30195,-2.0068,42.312,112.95,1.50E+07
30196,-0.58276,40.914,111.91,1.36E+07
30197,0.13972,39.361,114.49,7.66E+06
30198,-0.71443,38.477,112.56,7.76E+06
30199,-1.9124,38.713,114.79,5.47E+06
30200,-2.6509,40.405,112.74,6.74E+06
30201,-4.1735,42.312,112.95,1.22E+07
30202,-7.2016,40.686,113.12,7.06E+06
30203,-6.1468,38.91,114.68,4.21E+06
30204,-4.0791,38.713,114.79,3.22E+06
30205,-4.8175,40.405,112.74,3.49E+06
30206,0.4245,44.819,124.14,3.60E+06
30207,1.5682,46.484,124.23,3.14E+06
30208,3.1705,42.289,124.65,2.23E+06
30209,0.93412,42.741,125.28,2.18E+06
30210,4.4181,44.537,125.62,2.49E+06
30211,1.6856,45.398,125.95,2.27E+06
30212,3.8461,47.471,125.18,1.68E+06
30213,-2.3202,47.669,124.02,3.18E+06
30214,-0.78204,46.734,124.21,3.39E+06
30215,-1.4161,42.987,125.33,2.21E+06
30216,-3.3778,44.476,125.59,2.65E+06
30217,-0.6647,45.645,126,2.42E+06
30218,-3.2055,46.852,125.68,2.25E+06
30219,-2.2931,49.854,113.08,3.12E+07
30220,4.14E-02,46.345,111.76,3.98E+07
30221,0.13312,48.743,112.38,4.18E+07
30222,-2.5564,45.728,111.76,3.03E+07
30223,-3.5404,49.939,110.53,3.62E+07
30224,-0.98365,50.615,111.84,3.49E+07
30225,0.74275,47.611,110.03,3.93E+07
30226,-3.9079,47.518,110.2,3.36E+07
30227,-1.5619,48.545,109.84,3.79E+07
30228,-1.81,46.504,109.98,3.36E+07
30229,0.16048,50.616,113.79,3.43E+07
30230,-2.2682,52.115,116.71,1.88E+07
30231,0.16048,51.877,115.87,2.34E+07
30232,-3.513,51.749,111.95,2.68E+07
30233,-0.95629,52.425,113.25,2.58E+07
30234,-3.5283,53.041,114.39,2.18E+07
30235,-1.5932,53.706,115.41,2.00E+07
30236,-0.11672,50.729,122.09,6.41E+06
30237,-2.4927,51.495,120.98,7.47E+06
30238,-1.1765,49.202,123.37,4.75E+06
30239,-3.5267,52.444,122.11,3.81E+06
30240,-1.123,51.851,123.23,3.97E+06
30241,-3.6,49.31,125,3.80E+06
30242,-3.2323,51.168,124.09,4.04E+06
30243,-1.238,50.52,124.54,3.92E+06
30244,0.10528,51.914,120.02,9.48E+06
30245,2.534,52.137,119.18,1.16E+07
30246,1.4215,50.053,122.76,4.83E+06
30247,4.0978,52.789,121.98,5.58E+06
30248,1.4751,52.532,122.44,5.40E+06
30249,3.6993,50.857,123.76,4.80E+06
30250,1.36,51.201,123.75,4.82E+06
30251,2.3211,53.45,120.52,5.35E+06
30252,2.495,47.374,111.9,3.75E+07
30253,-0.19453,44.296,111.99,3.37E+07
30254,1.2295,42.785,110.8,3.35E+07
30255,3.1046,46.172,109.95,4.24E+07
30256,3.8081,43.034,110.57,4.27E+07
30257,2.4033,43.929,108.67,4.03E+07
30258,0.55187,45.065,109.9,3.54E+07
30259,2.5867,51.305,114.69,2.71E+07
30260,3.7696,51.153,111.35,3.64E+07
30261,1.47,51.546,112.29,3.53E+07
30262,3.1964,48.542,110.48,3.79E+07
30263,3.102,52.334,113.38,3.13E+07
30264,0.89169,49.476,110.29,3.66E+07
30265,1.8279,51.113,110.36,3.92E+07
30266,0.158,52.248,117.84,1.64E+07
30267,-3.5308,53.449,116.32,1.19E+07
30268,-1.5957,54.114,117.34,1.01E+07
30269,-3.3047,53.558,120.05,9.06E+06
30270,-0.90095,52.965,121.17,8.31E+06
30271,-5.49E-02,53.883,119.25,9.62E+06
30272,-3.9439,54.373,118.15,8.92E+06
30273,1.47,52.811,114.32,1.93E+07
30274,0.83305,54.092,116.48,1.47E+07
30275,4.3736,54.073,116.83,1.47E+07
30276,3.102,53.599,115.41,1.64E+07
30277,2.3738,53.86,118.38,1.36E+07
30278,-1.3683,42.193,110.97,2.15E+07
30279,-4.1439,45.487,110.29,2.37E+07
30280,-3.838,43.12,110.33,1.85E+07
30281,-2.0459,44.473,110.06,2.54E+07
30282,-3.4364,41.684,111.81,1.37E+07
30283,0.47902,47.286,125.81,2.74E+06
30284,2.6395,49.359,125.03,3.04E+06
30285,-2.0618,48.494,125.49,3.01E+06
30286,0.30019,49.704,125.02,2.81E+06
30287,3.6358,33.742,66.973,3.82E+08
30288,7.1083,35.306,68.332,4.00E+08
30289,4.4604,35.265,68.306,3.17E+08
30290,7.3521,33.233,69.006,3.91E+08
30291,4.9756,33.164,69.124,3.36E+08
30292,5.4806,32.065,66.843,4.44E+08
30293,7.703,32.092,67.384,5.03E+08
30294,-0.94541,33.721,66.947,2.41E+08
30295,2.0459,35.236,68.289,2.05E+08
30296,-9.62E-02,35.337,68.351,1.60E+08
30297,2.5611,33.143,69.098,2.28E+08
30298,0.23526,31.829,67.1,2.58E+08
30299,3.0662,32.043,66.817,3.37E+08
30300,0.20785,33.554,69.064,1.92E+08
30301,-4.6932,33.473,66.621,3.36E+08
30302,-2.2629,35.337,68.351,1.50E+08
30303,-4.0442,35.043,68.162,1.94E+08
30304,-4.4466,31.317,66.193,3.26E+08
30305,-4.089,33.084,68.573,2.21E+08
30306,-1.9314,31.829,67.1,2.55E+08
30307,-1.9588,33.554,69.064,1.80E+08
30308,-7.9652,33.605,66.8,4.75E+08
30309,-5.6254,34.713,67.92,2.70E+08
30310,-6.0278,31.08,65.86,4.14E+08
30311,-5.6701,32.847,68.239,2.97E+08
30312,-7.832,31.188,67.121,4.33E+08
30313,-8.7955,36.808,68.997,2.78E+08
30314,-7.3162,35.229,68.284,3.43E+08
30315,-11.328,34.768,69.715,3.70E+08
30316,-11.328,31.653,66.532,5.48E+08
30317,-11.328,32.748,68.58,4.21E+08
30318,-7.3609,33.231,68.74,3.54E+08
30319,-9.5228,31.572,67.622,4.90E+08
30320,-9.3615,35.417,69.914,3.34E+08
30321,-10.013,32.873,69.368,3.87E+08
30322,-7.5188,39.399,56.806,2.88E+08
30323,-6.5422,35.078,57.814,4.68E+08
30324,-4.9252,38.538,56.75,2.83E+08
30325,-5.1611,36.506,57.099,3.83E+08
30326,-10.265,35.545,55.684,4.64E+08
30327,-8.7316,34.719,55.186,4.45E+08
30328,-5.4981,35.623,55.05,3.27E+08
30329,-8.1592,37.219,54.848,3.63E+08
30330,-5.7652,37.76,55.131,3.10E+08
30331,-8.7782,34.184,56.466,5.23E+08
30332,-6.5269,34.441,56.611,4.24E+08
30333,-7.5077,43.675,59.399,1.24E+08
30334,-4.9141,41.15,57.309,1.81E+08
30335,-4.8784,43.097,58.694,1.35E+08
30336,-8.1481,39.805,55.195,1.54E+08
30337,-9.2405,41.532,55.226,1.64E+08
30338,-6.1375,43.563,57.185,1.51E+08
30339,-8.5169,44.308,57.068,1.61E+08
30340,-5.7542,40.345,55.478,1.33E+08
30341,-6.7074,42.257,55.608,1.50E+08
30342,-7.5077,44.725,64.066,5.94E+07
30343,-4.8784,44.4,60.755,7.52E+07
30344,-4.851,44.817,63.062,6.21E+07
30345,-6.1375,44.941,59.139,5.15E+07
30346,-8.5169,45.686,59.023,5.29E+07
30347,-5.5436,46.27,60.891,5.76E+07
30348,-8.4687,46.695,61.855,6.22E+07
30349,-6.3843,46.321,63.129,5.87E+07
30350,-7.7214,42.229,68.065,8.31E+07
30351,-4.851,44.317,65.449,5.17E+07
30352,-5.0716,43.067,67.338,4.16E+07
30353,-8.2379,43.649,68.002,6.13E+07
30354,-8.9601,46.093,66.088,4.36E+07
30355,-8.4687,46.287,64.212,3.95E+07
30356,-6.167,45.486,67.855,4.55E+07
30357,-6.3843,45.913,65.485,4.24E+07
30358,7.5077,44.725,61.934,5.60E+07
30359,7.7172,43.652,66.634,9.67E+07
30360,5.0472,44.814,63.177,4.91E+07
30361,5.0894,44.316,65.452,5.71E+07
30362,10.254,45.876,65.989,4.75E+07
30363,8.8321,45.116,67.256,6.32E+07
30364,8.431,46.134,62.463,4.81E+07
30365,5.4848,46.456,64.833,4.45E+07
30366,8.4242,46.648,64.754,4.61E+07
30367,6.7964,45.663,66.856,4.76E+07
30368,6.6054,46.507,62.911,4.33E+07
30369,7.5077,42.168,57.892,1.16E+08
30370,5.0472,44.407,60.773,5.10E+07
30371,5.0472,43.11,58.708,5.21E+07
30372,10.254,45.494,59.097,6.03E+07
30373,6.6871,43.89,57.19,4.75E+07
30374,8.617,44.498,57.55,5.89E+07
30375,6.0528,45.49,58.743,5.07E+07
30376,8.431,45.726,60.107,5.79E+07
30377,6.6054,46.099,60.554,5.21E+07
30378,7.7411,37.561,56.832,2.99E+08
30379,5.0472,41.122,57.296,1.15E+08
30380,4.9555,38.704,56.751,1.40E+08
30381,8.7266,38.342,55.826,2.19E+08
30382,6.6871,41.935,55.812,1.35E+08
30383,8.617,42.544,56.172,1.50E+08
30384,6.8167,39.459,54.894,1.32E+08
30385,5.0703,40.81,55.273,1.13E+08
30386,8.5353,40.387,55.246,1.65E+08
30387,6.1155,34.093,58.636,4.32E+08
30388,5.1889,36.359,57.153,2.92E+08
30389,8.96,36.036,56.202,3.93E+08
30390,7.0502,37.154,55.27,2.91E+08
30391,8.1219,33.173,57.884,5.41E+08
30392,7.1998,35.339,55.089,3.23E+08
30393,9.0433,33.651,56.239,4.72E+08
30394,6.6658,33.964,56.256,3.75E+08
30395,-6.4557,38.363,69.247,1.33E+08
30396,-5.2852,41.133,68.699,7.53E+07
30397,-10.468,40.717,70.579,1.36E+08
30398,-8.501,38.453,70.804,9.86E+07
30399,-8.4516,41.767,69.362,1.13E+08
30400,-8.9875,41.446,71.591,9.64E+07
30401,-6.6116,40.334,70.745,8.59E+07
30402,8.0464,39.593,69.165,2.37E+08
30403,5.5184,37.148,69.087,2.99E+08
30404,6.2685,38.728,69.248,2.53E+08
30405,10.583,35.808,70.411,3.38E+08
30406,8.4101,34.948,70.056,3.14E+08
30407,6.7322,37.561,71.187,2.52E+08
30408,8.8334,38.259,70.388,3.01E+08
30409,9.3984,36.074,71.577,2.67E+08
30410,6.0336,34.88,70.174,2.63E+08
30411,5.2988,42.911,67.494,1.06E+08
30412,6.1486,41.07,68.727,1.54E+08
30413,10.463,42.222,70.045,1.59E+08
30414,8.7136,40.581,70.001,1.45E+08
30415,9.0415,43.703,69.232,1.39E+08
30416,7.0059,44.251,68.833,1.17E+08
30417,7.2318,42.239,70.353,1.19E+08
30418,9.253,41.982,70.795,1.25E+08
30419,1.5175,33.414,59.463,3.49E+08
30420,3.3298,34.965,57.893,2.46E+08
30421,2.8971,32.741,57.61,3.10E+08
30422,5.0042,30.921,60.413,4.62E+08
30423,2.7648,31.368,59.786,3.84E+08
30424,6.2627,32.08,59.005,5.07E+08
30425,4.4131,31.208,58.347,3.84E+08
30426,4.8067,32.871,57.377,3.37E+08
30427,-3.3879,33.721,59.053,4.23E+08
30428,0.591,35.394,57.615,1.95E+08
30429,-2.0068,34.879,57.954,2.79E+08
30430,-2.7068,31.587,59.527,3.84E+08
30431,0.15828,33.03,57.188,2.69E+08
30432,2.60E-02,31.657,59.365,3.31E+08
30433,-1.4564,32.139,57.395,3.07E+08
30434,-3.3727,32.933,57.626,3.49E+08
30435,-4.1735,34.879,57.954,3.78E+08
30436,-4.8735,31.587,59.527,4.77E+08
30437,-7.2943,30.904,59.042,5.71E+08
30438,-7.7906,32.675,57.481,5.39E+08
30439,-5.5393,32.933,57.626,4.47E+08
30440,0.72845,37.217,69.102,1.15E+08
30441,0.11758,39.698,69.147,9.04E+07
30442,3.6206,38.68,69.249,1.49E+08
30443,4.0843,37.514,71.177,1.48E+08
30444,1.3917,38.572,71.062,1.09E+08
30445,3.3858,34.833,70.163,1.69E+08
30446,1.0325,35.244,70.129,1.37E+08
30447,1.9846,36.584,71.305,1.26E+08
30448,-3.1951,36.992,69.048,9.69E+07
30449,-2.0246,39.814,69.124,1.69E+07
30450,-0.75044,38.688,71.087,3.85E+07
30451,-3.351,38.957,70.777,3.44E+07
30452,-2.4353,36.581,71.246,6.45E+07
30453,-1.1096,35.359,70.155,9.04E+07
30454,-0.15761,36.7,71.33,6.67E+07
30455,-3.8059,39.47,69.184,7.99E+07
30456,-5.0211,34.552,69.575,1.63E+08
30457,-7.0217,36.739,70.748,1.44E+08
30458,-5.1323,38.619,70.689,1.02E+08
30459,-4.2166,36.242,71.158,1.07E+08
30460,-2.891,35.021,70.067,1.21E+08
30461,-2.2848,42.461,58.111,7.89E+07
30462,0.13312,41.31,57.384,6.14E+07
30463,4.14E-02,38.912,56.76,5.97E+07
30464,-2.5564,38.295,56.756,1.67E+08
30465,-0.48366,38.814,55.049,7.37E+07
30466,-1.6905,41.22,55.757,9.24E+07
30467,-3.5439,42.779,56.829,1.00E+08
30468,-3.1606,39.562,55.122,1.07E+08
30469,-4.1138,41.474,55.253,1.14E+08
30470,-2.2218,44.759,62.151,5.50E+07
30471,0.1688,44.461,60.922,5.57E+07
30472,0.1688,43.217,58.824,4.79E+07
30473,-1.6548,43.055,57.218,4.19E+07
30474,-0.87636,44.851,57.989,4.87E+07
30475,-3.5082,44.614,58.29,5.93E+07
30476,-2.9143,45.943,60.042,5.64E+07
30477,-0.8665,46.217,60.752,4.78E+07
30478,-2.4149,43.706,66.558,4.27E+07
30479,0.19617,44.812,63.239,5.15E+07
30480,0.23834,44.291,65.509,5.56E+07
30481,-2.8869,46.255,62.323,3.89E+07
30482,-0.83914,46.529,63.033,4.00E+07
30483,0.63374,46.441,64.893,4.42E+07
30484,-3.5103,45.88,66.93,4.69E+07
30485,-3.7276,46.307,64.56,4.53E+07
30486,-0.7938,45.867,66.736,4.20E+07
30487,1.78E-02,43.021,67.385,4.70E+07
30488,0.86761,41.211,68.663,7.44E+07
30489,-5.8018,42.774,68.909,5.44E+07
30490,-0.41296,43.483,69.832,3.81E+07
30491,-3.7309,44.611,68.762,4.04E+07
30492,-1.0143,44.598,68.568,3.86E+07
30493,-1.3613,41.071,70.602,2.01E+07
30494,-3.9618,41.34,70.291,3.33E+07
30495,-2.8324,43.223,70.631,3.05E+07
30496,2.6289,44.679,64.305,4.97E+07
30497,2.5867,43.872,59.695,4.17E+07
30498,1.5416,45.212,59.012,3.35E+07
30499,3.5923,45.932,59.902,3.92E+07
30500,1.5514,46.578,61.775,3.88E+07
30501,3.0243,46.49,63.636,3.93E+07
30502,4.1449,46.541,61.713,4.00E+07
30503,3.5209,42.245,68.053,8.33E+07
30504,2.2403,44.321,68.98,4.37E+07
30505,3.0665,46.012,65.874,4.88E+07
30506,4.3781,45.219,67.897,5.64E+07
30507,1.6389,45.437,67.716,4.83E+07
30508,2.495,39.941,56.903,4.66E+07
30509,0.76309,42.151,56.211,3.94E+07
30510,4.2266,43.067,56.319,5.18E+07
30511,1.5416,43.947,56.982,4.05E+07
30512,3.5923,44.667,57.872,4.37E+07
30513,2.6098,41.942,55.78,3.69E+07
30514,-0.19453,36.863,56.987,1.38E+08
30515,1.9705,34.902,56.086,1.49E+08
30516,1.8782,37.375,54.97,7.44E+07
30517,0.67135,39.781,55.677,3.33E+07
30518,4.2645,38.221,54.867,9.77E+07
30519,2.5181,39.572,55.246,5.75E+07
30520,4.4142,36.407,54.686,1.27E+08
30521,3.8802,35.032,55.853,1.81E+08
30522,4.8344,39.089,71.148,9.72E+07
30523,6.9356,39.787,70.348,1.54E+08
30524,3.0901,42.558,70.264,9.25E+07
30525,5.2279,43.456,69.18,1.03E+08
30526,2.1417,40.147,71.033,8.23E+07
30527,5.4538,41.445,70.7,1.16E+08
30528,3.5694,41.406,71.798,8.86E+07
30529,-0.62725,34.309,56.254,2.03E+08
30530,-3.1293,35.394,55.13,2.20E+08
30531,-0.71958,36.783,55.138,1.49E+08
30532,-3.3965,37.531,55.211,1.95E+08
30533,-2.2419,33.418,56.46,2.54E+08
30534,-4.1582,34.212,56.691,3.22E+08
30535,103.34,49.165,13.189,1.11E+07
30536,104.54,50.202,16.387,1.05E+07
30537,105.95,50.906,13.224,1.30E+07
30538,101.4,48.49,16.77,1.03E+07
30539,102.39,51.23,16.65,1.16E+07
30540,102.02,51.56,14.347,1.15E+07
30541,104.56,51.059,15.018,1.02E+07
30542,101.19,49.247,13.958,9.65E+06
30543,103.18,48.975,9.419,1.70E+07
30544,106.28,51.009,10.887,1.23E+07
30545,102.04,51.282,9.5964,1.00E+07
30546,104.65,52.227,10.207,9.01E+06
30547,102.24,51.815,12.011,9.56E+06
30548,104.78,51.314,12.681,8.18E+06
30549,101.41,49.502,11.621,7.74E+06
30550,100.32,48.639,6.7427,1.44E+07
30551,101.67,50.827,8.1628,1.83E+07
30552,101.04,49.046,10.187,1.55E+07
30553,107.18,38.804,16.078,3.20E+07
30554,106.2,39.015,13.443,3.83E+07
30555,103.66,40.505,15.351,3.16E+07
30556,104.45,39.856,13.83,3.16E+07
30557,104.63,37.942,18.824,3.11E+07
30558,106.01,37.086,17.04,2.66E+07
30559,104.07,36.637,16.93,2.93E+07
30560,105.88,37.559,14.939,2.76E+07
30561,102.71,38.247,17.271,3.50E+07
30562,104.44,37.893,13.219,2.92E+07
30563,103.03,37.971,14.771,3.46E+07
30564,111.6,39.892,16.008,2.70E+07
30565,110.56,39.296,13.362,2.48E+07
30566,108.38,38.762,13.372,3.43E+07
30567,108.15,36.802,16.969,2.25E+07
30568,109.81,35.961,16.835,2.32E+07
30569,110.38,38.201,17.335,2.68E+07
30570,108.03,37.274,14.869,2.33E+07
30571,110.63,37.944,15.03,2.70E+07
30572,114.16,43.934,16.008,2.27E+07
30573,113.84,42.767,13.35,3.20E+07
30574,112.54,40.708,13.362,2.81E+07
30575,112.33,39.579,17.335,2.80E+07
30576,114.87,41.538,17.192,2.07E+07
30577,115.33,42.518,14.794,1.94E+07
30578,114.37,39.753,16.792,2.31E+07
30579,115.99,40.777,15.119,1.69E+07
30580,112.59,39.322,15.03,2.90E+07
30581,114.15,40.77,14.576,2.39E+07
30582,113.11,48.601,16.008,1.05E+07
30583,113.78,47.376,13.247,1.36E+07
30584,114.25,45.17,13.35,2.67E+07
30585,115.28,43.895,17.192,1.68E+07
30586,116.69,45.448,16.932,1.16E+07
30587,115.57,49.096,14.787,1.56E+07
30588,116.74,47.514,14.765,1.26E+07
30589,115.73,44.875,14.794,1.43E+07
30590,115.36,48.133,16.774,1.59E+07
30591,108.89,51.187,16.628,1.19E+07
30592,110.42,50.764,13.465,1.45E+07
30593,112.43,49.407,13.247,5.90E+06
30594,110.58,52.235,17.008,7.34E+06
30595,112.9,51.985,16.95,6.86E+06
30596,114.19,51.051,14.787,7.72E+06
30597,112.49,52.251,14.465,6.40E+06
30598,110.47,53.433,15.098,5.57E+06
30599,113.98,50.088,16.774,7.95E+06
30600,107.85,51.248,14.085,1.73E+07
30601,105.04,53.057,19.374,9.84E+06
30602,103.97,52.282,17.511,1.21E+07
30603,108.05,52.598,17.629,1.03E+07
30604,106,53.628,17.646,8.01E+06
30605,106.14,52.112,15.879,1.15E+07
30606,111.64,50.084,10.704,1.12E+07
30607,109.62,52.637,14.465,1.06E+07
30608,107.57,53.064,10.242,1.27E+07
30609,110.58,51.654,9.3899,1.41E+07
30610,110.25,53.538,9.7211,8.87E+06
30611,111.53,52.654,11.922,1.15E+07
30612,109.51,53.835,12.556,8.19E+06
30613,107.71,52.15,12.716,1.37E+07
30614,114.13,46.217,10.59,1.88E+07
30615,115.81,46.885,9.9019,4.90E+06
30616,112.52,50.268,9.1721,6.74E+06
30617,116.66,48.951,9.501,4.94E+06
30618,115.17,50.066,12.027,7.79E+06
30619,113.47,51.267,11.704,7.64E+06
30620,116.34,48.484,12.004,4.83E+06
30621,115.33,45.845,12.033,5.77E+06
30622,113.73,49.337,9.2399,7.86E+06
30623,113.3,41.689,10.704,2.89E+07
30624,116.33,42.935,8.0964,1.72E+07
30625,115.42,41.582,10.007,2.32E+07
30626,116.25,44.71,10.005,2.07E+07
30627,115.77,43.67,12.137,2.13E+07
30628,114.59,41.922,11.918,2.63E+07
30629,109.61,38.962,10.726,3.08E+07
30630,110.3,37.662,10.141,2.71E+07
30631,112.67,37.353,9.8382,2.51E+07
30632,114.16,39.559,10.019,1.82E+07
30633,113.76,38.034,11.875,2.01E+07
30634,111.77,38.452,12.384,2.67E+07
30635,113.32,39.9,11.93,2.14E+07
30636,105.5,39.271,11.124,3.38E+07
30637,105.78,37.597,8.1186,3.05E+07
30638,108.17,37.094,10.152,3.30E+07
30639,107.03,37.213,12.233,2.97E+07
30640,105.59,37.548,10.513,3.15E+07
30641,109.64,37.883,12.395,3.34E+07
30642,103.15,41.052,13.032,2.89E+07
30643,100.67,41.569,16.252,2.65E+07
30644,100.54,41.596,13.083,2.79E+07
30645,101.46,39.46,16.474,3.27E+07
30646,100.31,43.159,14.79,2.08E+07
30647,101.78,39.183,13.974,3.25E+07
30648,101.81,40.356,8.5053,3.33E+07
30649,101.57,38.732,10.257,3.24E+07
30650,101.19,40.805,11.562,2.72E+07
30651,103.83,38.315,10.9,2.58E+07
30652,102.42,38.392,12.452,3.13E+07
30653,-83.485,-6.2515,-62.954,7.31E+05
30654,-80.915,-4.927,-59.291,3.59E+05
30655,-80.678,-6.957,-61.152,4.20E+05
30656,-81.571,-5.1945,-61.718,4.34E+05
30657,-81.88,-7.7981,-61.334,4.83E+05
30658,-81.062,-7.7717,-59.389,4.14E+05
30659,-83.153,-6.2515,-67.398,4.34E+05
30660,-81.773,-5.1945,-63.937,3.80E+05
30661,-81.98,-7.3421,-65.433,3.24E+05
30662,-81.387,-5.0829,-66.683,2.54E+05
30663,-82.083,-7.7981,-63.553,3.26E+05
30664,-82.481,-4.4157,-65.187,5.35E+05
30665,-81.391,-6.2515,-71.491,1.12E+05
30666,-81.449,-7.3421,-67.597,2.70E+05
30667,-80.439,-7.3337,-69.556,3.37E+05
30668,-80.856,-5.0829,-68.847,3.56E+05
30669,-78.393,-6.2515,-74.788,6.23E+05
30670,-79.232,-7.3337,-71.429,5.00E+05
30671,-79.65,-5.0829,-70.72,3.80E+05
30672,-78.314,-5.1977,-72.411,4.79E+05
30673,-78.375,-7.5134,-73.104,6.02E+05
30674,-74.485,-6.2515,-76.929,9.67E+05
30675,-74.6,-7.2609,-74.787,7.57E+05
30676,-73.987,-4.5858,-74.896,5.75E+05
30677,-76.563,-5.1977,-73.79,5.62E+05
30678,-76.624,-7.5134,-74.483,7.66E+05
30679,-70.092,-6.2515,-77.681,1.04E+06
30680,-70.695,-7.2017,-75.978,7.73E+05
30681,-72.496,-7.2609,-75.52,8.29E+05
30682,-71.883,-4.5858,-75.63,7.44E+05
30683,-66.848,-7.4125,-75.227,6.67E+05
30684,-66.998,-5.0203,-75.553,7.37E+05
30685,-68.467,-7.2017,-75.987,7.97E+05
30686,-69.655,-4.5858,-75.638,7.08E+05
30687,-16.39,34.302,-45.94,2.98E+06
30688,-16.644,30.097,-45.315,1.35E+07
30689,-16.752,25.115,-44.58,4.61E+07
30690,-16.396,20.593,-44.322,9.93E+07
30691,-55.438,-6.2515,88.655,3.44E+07
30692,-51.793,-5.2749,85.223,3.51E+07
30693,-53.953,-7.1438,85.811,3.16E+07
30694,-54.407,-5.3402,86.732,3.11E+07
30695,-53.995,-7.7639,86.914,2.91E+07
30696,-52.136,-7.7226,85.766,3.11E+07
30697,-59.894,-6.2515,88.71,2.51E+07
30698,-56.6,-5.3402,87.128,2.91E+07
30699,-58.086,-7.2007,87.387,2.57E+07
30700,-56.188,-7.7639,87.309,2.68E+07
30701,-57.618,-4.8425,87.913,2.63E+07
30702,-64.125,-6.2515,87.312,9.54E+06
30703,-63.66,-5.0328,85.553,1.18E+07
30704,-60.288,-7.2007,87.046,2.00E+07
30705,-63.366,-7.453,85.936,1.23E+07
30706,-61.5,-4.8865,86.432,1.83E+07
30707,-59.82,-4.8425,87.573,1.98E+07
30708,-67.671,-6.2515,84.613,8.91E+06
30709,-65.631,-5.0328,84.515,1.02E+07
30710,-65.337,-7.453,84.898,1.03E+07
30711,-70.144,-6.2515,80.906,2.44E+07
30712,-68.163,-4.5858,80.233,2.01E+07
30713,-68.065,-7.2884,81.044,1.93E+07
30714,-67.157,-5.0328,82.891,1.43E+07
30715,-66.863,-7.453,83.274,1.32E+07
30716,-71.276,-6.2515,76.596,3.47E+07
30717,-69.539,-7.1857,77.064,2.90E+07
30718,-69.077,-4.5858,78.201,2.60E+07
30719,-68.979,-7.2884,79.012,2.43E+07
30720,-69.503,-4.8657,73.393,3.15E+07
30721,-69.115,-7.2647,73.029,3.47E+07
30722,-69.742,-7.1857,74.845,3.23E+07
30723,-69.279,-4.5858,75.982,2.76E+07
30724,9.5583,38.711,-63.276,2.85E+06
30725,16.262,20.85,-61.471,2.03E+07
30726,16.563,18.631,-61.713,2.48E+07
30727,16.363,29.868,-61.975,1.38E+07
30728,16.926,27.391,-61.795,1.58E+07
30729,-10.108,38.547,-63.206,1.87E+06
30730,-6.23,50.954,57.633,5.74E+07
30731,-4.7571,52.004,61.701,3.26E+07
30732,-3.6833,51.251,58.377,4.51E+07
30733,-3.6622,51.738,60.038,3.61E+07
30734,-7.7633,49.184,58.067,6.81E+07
30735,-4.79,49.768,59.935,4.27E+07
30736,-7.7151,50.194,60.899,4.52E+07
30737,-6.5111,48.456,53.81,8.44E+07
30738,-3.9128,50.332,56.379,5.83E+07
30739,-4.1432,49.118,54.578,7.15E+07
30740,-5.6133,47.568,56.171,7.16E+07
30741,-7.9928,48.313,56.055,8.07E+07
30742,-5.0194,48.896,57.923,4.85E+07
30743,-4.6932,45.778,51.587,1.01E+08
30744,-4.1949,47.472,52.854,8.63E+07
30745,-5.665,45.952,54.432,8.00E+07
30746,-8.0445,46.697,54.316,8.96E+07
30747,-6.235,44.646,52.856,1.09E+08
30748,8.0191,49.346,54.872,7.21E+07
30749,6.3228,46.544,52.109,8.89E+07
30750,5.6803,48.49,53.847,7.49E+07
30751,6.9597,45.864,53.935,8.22E+07
30752,8.8896,46.473,54.295,8.76E+07
30753,6.3254,47.464,55.488,6.15E+07
30754,8.2016,51.472,59.036,5.34E+07
30755,5.6466,49.91,55.679,6.20E+07
30756,5.593,51.139,58.082,4.85E+07
30757,10.493,48.858,57.686,6.28E+07
30758,8.8558,47.863,56.139,7.57E+07
30759,6.2917,48.854,57.332,5.32E+07
30760,8.6698,49.091,58.696,5.25E+07
30761,6.8442,49.464,59.143,4.61E+07
30762,6.58,52.061,62.597,3.93E+07
30763,5.8093,51.807,60.361,3.98E+07
30764,10.709,50.204,62.217,4.18E+07
30765,8.886,49.785,60.957,4.91E+07
30766,8.8793,50.299,63.248,4.48E+07
30767,7.0604,50.158,61.404,4.23E+07
30768,-0.97872,45.003,51.133,9.66E+07
30769,-2.3253,46.614,52.16,8.87E+07
30770,-1.942,43.46,52.771,8.41E+07
30771,-1.1636,45.256,53.542,6.92E+07
30772,-3.7954,45.019,53.843,7.51E+07
30773,-4.3653,43.714,52.267,1.05E+08
30774,2.7294,45.179,51.23,9.35E+07
30775,-0.48048,46.778,52.284,8.42E+07
30776,2.087,47.32,52.722,7.89E+07
30777,-9.72E-02,43.641,52.869,7.69E+07
30778,0.68125,45.437,53.64,6.68E+07
30779,1.7495,43.432,52.438,7.71E+07
30780,3.9502,47.316,52.719,8.01E+07
30781,5.2296,44.553,52.975,8.28E+07
30782,2.5445,45.433,53.638,6.63E+07
30783,5.3592,42.077,52.057,9.47E+07
30784,3.6128,43.428,52.436,7.94E+07
30785,-1.4213,52.051,63.653,8.58E+06
30786,-2.4188,52.032,62.031,2.05E+07
30787,-3.5466,49.961,61.935,2.99E+07
30788,-6.4717,50.387,62.899,3.45E+07
30789,-1.4988,50.235,62.645,1.94E+07
30790,-4.3873,50.013,64.173,2.65E+07
30791,2.7066,52.048,63.714,1.78E+07
30792,1.936,51.979,61.465,2.09E+07
30793,-0.32635,52.027,61.968,1.53E+07
30794,0.59365,50.238,62.582,1.65E+07
30795,2.0665,50.15,64.442,1.93E+07
30796,3.9714,51.993,61.589,2.86E+07
30797,2.6291,50.232,62.706,2.15E+07
30798,4.102,50.144,64.567,2.92E+07
30799,7.0414,50.336,64.487,3.77E+07
30800,5.2226,50.195,62.644,3.22E+07
30801,-1.5966,49.599,55.219,6.20E+07
30802,0.97086,49.985,55.798,5.61E+07
30803,0.91732,51.19,58.214,3.92E+07
30804,-1.345,51.36,58.69,3.83E+07
30805,-0.43485,48.198,56.568,4.91E+07
30806,-3.0667,47.961,56.87,5.75E+07
30807,1.6159,48.917,57.458,4.17E+07
30808,-2.4728,49.289,58.622,3.94E+07
30809,-0.42499,49.563,59.331,3.00E+07
30810,0.74037,48.683,54.06,6.89E+07
30811,-0.66534,46.95,54.799,6.06E+07
30812,-3.2972,46.713,55.101,6.77E+07
30813,3.2543,50.592,56.864,5.06E+07
30814,4.5872,46.531,54.658,6.96E+07
30815,1.9021,47.411,55.32,5.61E+07
30816,3.9529,48.131,56.21,5.33E+07
30817,0.93844,51.699,59.868,2.86E+07
30818,3.8994,49.352,58.603,4.07E+07
30819,1.8584,49.997,60.476,2.67E+07
30820,4.4519,49.961,60.414,3.36E+07
30821,-2.4517,49.841,60.258,3.23E+07
30822,-0.40388,50.115,60.968,2.29E+07
30823,-2.1266,-14.586,-42.936,1.58E+08
30824,0.50023,-15.951,-42.551,1.50E+08
30825,-1.6594,-12.516,-44.519,1.73E+08
30826,1.3587,-12.66,-44.58,1.72E+08
30827,0.16088,-13.462,-42.072,1.50E+08
30828,2.5293,-13.751,-42.974,1.64E+08
30829,2.9031,-14.973,-43.306,1.62E+08
30830,-5.9891,37.781,128.71,5.69E+05
30831,-4.5784,34.634,125.28,1.74E+06
30832,-3.5878,37.247,128.28,7.20E+05
30833,-3.7294,35.706,126.73,1.19E+06
30834,-6.4909,36.391,124.13,1.83E+06
30835,-7.9179,36.949,125.94,8.16E+05
30836,-5.3636,37.322,125.98,1.06E+06
30837,-6.4528,42.28,130.98,3.03E+05
30838,-3.6092,39.566,129.87,3.29E+05
30839,-3.7705,42.027,130.9,2.73E+05
30840,-3.4585,40.543,128.33,6.88E+05
30841,-7.9393,39.168,127.65,5.60E+05
30842,-5.4202,42.032,128.59,8.40E+05
30843,-7.8895,41.107,128.57,5.90E+05
30844,-5.385,39.54,127.69,8.01E+05
30845,-6.9392,46.854,131.47,6.76E+05
30846,-4.2128,44.224,131.38,3.84E+05
30847,-5.0867,45.929,131.5,5.78E+05
30848,-5.8624,44.186,129.21,8.24E+05
30849,-8.3318,43.26,129.19,4.95E+05
30850,-8.0051,45.32,129.7,8.26E+05
30851,-5.6902,46.562,129.3,1.14E+06
30852,-6.8525,51.511,130.32,1.16E+06
30853,-5.1309,48.29,131.3,8.40E+05
30854,-4.3508,50.391,130.77,1.08E+06
30855,-8.0493,47.675,129.55,8.42E+05
30856,-5.7344,48.917,129.15,1.26E+06
30857,-8.5483,49.625,129.53,1.37E+06
30858,-6.6401,55.542,127.55,1.69E+06
30859,-4.2198,52.623,129.76,1.35E+06
30860,-4.1702,54.873,128.17,1.80E+06
30861,-7.6845,53.149,127.03,2.21E+06
30862,-5.6034,51.142,128.15,1.13E+06
30863,-5.2357,53,127.25,2.01E+06
30864,-8.4174,51.85,128.54,1.46E+06
30865,-6.4763,58.331,123.49,2.46E+06
30866,-4.0888,56.577,126.39,2.16E+06
30867,-3.9963,57.814,124.53,2.94E+06
30868,-5.4487,56.014,123.52,3.49E+06
30869,-7.603,54.887,125.3,2.11E+06
30870,-5.1543,54.738,125.51,1.96E+06
30871,-8.1738,56.635,123.92,2.94E+06
30872,-6.472,59.488,118.57,4.75E+06
30873,-3.9139,58.808,122.27,3.53E+06
30874,-3.889,59.406,119.59,5.59E+06
30875,-8.0246,57.516,119.88,4.14E+06
30876,-5.3663,57.017,121.27,3.64E+06
30877,-8.0914,57.638,121.67,3.08E+06
30878,-6.0054,57.832,119.37,5.35E+06
30879,-4.6692,59.116,114.8,1.03E+07
30880,-3.9672,59.461,116.98,7.32E+06
30881,-5.6705,57.017,114.95,1.16E+07
30882,-6.0836,57.941,116.78,6.58E+06
30883,-7.979,58.01,115.72,6.38E+06
30884,7.5799,59.359,119.94,6.32E+06
30885,6.1821,59.216,115.24,1.18E+07
30886,5.4149,59.442,119.25,6.89E+06
30887,5.4579,59.465,117.03,9.13E+06
30888,6.9049,57.727,116.92,9.77E+06
30889,8.8196,57.761,117.33,8.08E+06
30890,7.8591,57.742,124.66,3.59E+06
30891,5.3455,58.895,122,5.07E+06
30892,5.3632,58.08,124.03,3.91E+06
30893,10.255,56.68,122.39,3.24E+06
30894,6.8355,57.325,119.67,7.90E+06
30895,8.7502,57.36,120.08,6.56E+06
30896,6.6124,56.453,122.68,4.00E+06
30897,8.6563,56.378,123.36,3.27E+06
30898,4.8357,57.113,121.22,5.80E+06
30899,8.2288,54.859,128.19,2.09E+06
30900,5.7118,56.935,125.92,2.95E+06
30901,5.7746,55.587,127.5,2.33E+06
30902,6.961,55.366,124.6,3.48E+06
30903,9.0049,55.292,125.27,2.80E+06
30904,6.5625,53.434,126.38,1.68E+06
30905,8.4291,50.909,130.58,1.18E+06
30906,5.7957,53.784,129.03,1.77E+06
30907,5.9191,51.855,130.16,1.35E+06
30908,10.625,51.85,128.02,1.46E+06
30909,9.0259,53.516,126.82,2.37E+06
30910,8.8969,50.484,128.32,1.07E+06
30911,6.5836,51.659,127.92,1.66E+06
30912,8.3519,46.404,131.49,5.49E+05
30913,6.0984,49.732,130.97,9.93E+05
30914,6.132,47.535,131.41,6.66E+05
30915,10.804,47.437,129.55,7.79E+05
30916,7.3349,46.616,129.18,6.33E+05
30917,9.0762,48.375,129.14,1.08E+06
30918,6.7629,49.55,128.75,1.53E+06
30919,9.3378,46.523,129.78,4.94E+05
30920,7.9627,41.372,130.68,2.91E+05
30921,5.8755,45.193,131.48,3.62E+05
30922,5.6948,42.684,131.09,94339
30923,7.0785,44.283,129.25,7.65E+05
30924,9.0813,44.19,129.85,5.02E+05
30925,7.9785,36.743,127.83,1.30E+06
30926,5.5621,40.078,130.13,4.33E+05
30927,5.3814,37.657,128.61,9.11E+05
30928,10.415,40.194,128.02,6.68E+05
30929,5.6981,39.441,127.34,1.21E+06
30930,8.0878,39.119,127.13,1.30E+06
30931,6.9458,41.689,128.31,5.93E+05
30932,8.9487,41.596,128.9,3.16E+05
30933,6.3598,34.234,124.62,2.75E+06
30934,5.5298,35.718,126.75,1.63E+06
30935,10.563,35.958,123.5,1.98E+06
30936,7.362,35.859,123.33,2.93E+06
30937,8.2362,37.17,125.3,1.51E+06
30938,-0.87875,58.782,113.66,1.44E+07
30939,-2.0861,59.321,115.81,1.07E+07
30940,-3.7894,56.738,113.8,1.45E+07
30941,-1.8544,57.403,114.82,1.24E+07
30942,-4.2025,57.662,115.63,9.55E+06
30943,2.8728,58.734,113.52,1.54E+07
30944,-0.17676,59.318,115.79,1.13E+07
30945,2.1485,59.218,115.26,1.23E+07
30946,0.69188,56.116,112.65,2.12E+07
30947,5.50E-02,57.398,114.81,1.29E+07
30948,2.3239,56.904,113.74,1.63E+07
30949,3.9907,59.191,115.13,1.29E+07
30950,5.4377,57.335,115.04,1.24E+07
30951,4.1661,56.861,113.62,1.70E+07
30952,-1.2972,33.774,123.72,2.68E+06
30953,-2.3402,34.606,125.24,1.98E+06
30954,-5.1017,35.392,122.57,2.43E+06
30955,-2.1024,35.728,123.85,2.07E+06
30956,-3.9744,36.323,124.42,1.60E+06
30957,-3.0135,35.415,122.14,2.92E+06
30958,2.5937,33.708,123.58,3.16E+06
30959,1.7638,35.004,125.83,1.97E+06
30960,-0.44819,34.646,125.3,2.12E+06
30961,1.2231,35.248,122.18,3.30E+06
30962,-0.21044,35.759,123.91,2.18E+06
30963,-1.1216,35.446,122.2,3.04E+06
30964,3.7627,34.871,125.64,2.36E+06
30965,3.2221,35.153,121.97,3.70E+06
30966,5.5949,35.177,122.11,3.55E+06
30967,4.0794,36.81,124.29,1.86E+06
30968,6.4691,36.488,124.08,1.90E+06
30969,-1.3693,41.376,130.68,2.93E+05
30970,1.0431,40.128,130.16,3.62E+05
30971,0.86241,37.701,128.65,8.66E+05
30972,-1.3495,37.207,128.24,9.80E+05
30973,-1.0572,39.94,128,8.06E+05
30974,-2.9838,38.937,127.36,9.65E+05
30975,-2.4045,45.666,131.5,5.13E+05
30976,1.0625,45.141,131.47,3.94E+05
30977,0.88183,42.634,131.07,1.63E+05
30978,-1.2186,42.436,128.91,5.90E+05
30979,-3.1802,43.925,129.17,8.42E+05
30980,-0.46712,45.093,129.58,8.17E+05
30981,-2.4982,49.506,131.04,9.48E+05
30982,0.15502,49.068,131.15,9.13E+05
30983,0.18862,46.851,131.47,6.05E+05
30984,-4.0541,45.63,129.22,7.19E+05
30985,-1.341,46.799,129.63,8.47E+05
30986,-3.8818,48.006,129.3,1.24E+06
30987,-1.6685,53.931,128.92,1.61E+06
30988,0.81173,53.125,129.47,1.57E+06
30989,0.93518,51.133,130.49,1.19E+06
30990,-0.56086,48.886,129.07,7.63E+05
30991,-3.1017,50.093,128.74,1.26E+06
30992,-2.734,51.952,127.84,1.96E+06
30993,-0.73969,51.303,128.28,1.63E+06
30994,-1.5264,57.344,125.32,2.96E+06
30995,0.79856,56.699,126.23,2.72E+06
30996,0.86134,55.305,127.78,2.09E+06
30997,-2.9788,55.445,124.24,3.58E+06
30998,-0.57503,54.853,125.36,2.85E+06
30999,-2.6844,54.17,126.23,2.17E+06
31000,-0.69009,53.521,126.67,1.73E+06
31001,-1.409,59.22,120.73,5.81E+06
31002,0.87325,58.78,122.35,4.76E+06
31003,0.89101,57.909,124.36,3.52E+06
31004,-2.8863,56.65,122.37,4.15E+06
31005,-0.48258,56.058,123.49,3.23E+06
31006,0.36348,56.975,121.57,5.58E+06
31007,0.89819,59.396,119.68,6.66E+06
31008,0.94115,59.489,117.46,9.00E+06
31009,-1.1524,57.759,116.99,1.04E+07
31010,-2.8614,57.203,119.7,5.26E+06
31011,0.38842,57.528,118.9,6.92E+06
31012,-3.5006,58.018,117.8,7.53E+06
31013,3.1982,58.375,123.39,4.33E+06
31014,3.2234,59.452,119.13,7.63E+06
31015,4.6705,57.532,119.01,8.53E+06
31016,2.6707,57.32,120.56,6.28E+06
31017,3.2788,56.079,126.98,2.56E+06
31018,4.4652,55.788,124.02,3.66E+06
31019,1.8424,55.531,124.48,3.16E+06
31020,2.6885,56.448,122.56,5.23E+06
31021,3.465,52.737,129.7,1.52E+06
31022,4.528,54.406,125.57,3.21E+06
31023,1.9052,54.149,126.03,2.78E+06
31024,4.1295,52.473,127.35,1.69E+06
31025,1.7901,52.818,127.34,1.77E+06
31026,3.622,48.554,131.26,7.80E+05
31027,2.0924,48.468,129.24,7.82E+05
31028,4.2529,50.54,128.46,1.62E+06
31029,1.9136,50.885,128.45,1.59E+06
31030,3.4749,43.794,131.32,1.95E+05
31031,4.8586,45.414,129.32,7.28E+05
31032,2.126,46.275,129.66,8.02E+05
31033,4.2865,48.348,128.88,1.38E+06
31034,3.1135,38.778,129.41,7.42E+05
31035,3.4302,40.672,127.94,1.08E+06
31036,1.1939,41.124,128.57,7.34E+05
31037,4.6779,42.921,128.91,7.28E+05
31038,1.9453,43.782,129.25,6.40E+05
31039,0.72081,36.095,127.17,1.35E+06
31040,2.3921,36.615,124.1,2.82E+06
31041,3.2495,38.272,126.42,1.33E+06
31042,1.0131,38.724,127.05,9.66E+05
31043,5.6392,37.951,126.21,1.39E+06
31044,0.95856,37.126,125.83,1.68E+06
31045,1.1729,57.737,116.44,1.11E+07
31046,4.7134,57.718,116.8,1.03E+07
31047,3.4418,57.244,115.38,1.46E+07
31048,2.7137,57.506,118.35,7.57E+06
31049,-1.1988,38.291,126.58,1.03E+06
31050,-1.2534,36.693,125.36,1.75E+06
31051,-3.1254,37.288,125.94,1.28E+06
31052,0.38366,18.861,76.023,1.85E+08
31053,-0.5919,19.589,77.383,1.56E+08
31054,-1.0941,13.542,70.906,3.37E+08
31055,1.0683,13.146,70.982,3.49E+08
31056,-0.16674,11.25,69.833,3.75E+08
31057,-1.4279,4.9915,66.969,3.80E+08
31058,-9.67E-02,2.7621,65.788,3.70E+08
31059,0.95076,5.4763,66.168,3.70E+08
31060,91.317,45.2,14.261,2.14E+07
31061,92.309,43.468,16.088,1.56E+07
31062,93.228,45.173,17.179,1.57E+07
31063,93.652,46.788,15.242,1.47E+07
31064,93.033,44.896,14.577,1.33E+07
31065,92.257,43.37,14.326,1.38E+07
31066,93.002,44.228,10.989,8.69E+06
31067,91.785,43.155,12.301,1.30E+07
31068,92.982,44.798,12.815,1.14E+07
31069,107.57,29.293,10.632,3.79E+07
31070,109.52,29.88,9.6312,4.02E+07
31071,108.87,29.62,12.414,3.72E+07
31072,108.06,29.44,17.633,2.75E+07
31073,109.87,30.724,17.181,2.88E+07
31074,108.87,29.62,15.614,3.14E+07
31075,93.72,52.216,13.079,5.29E+06
31076,95.512,55.003,16.057,1.90E+06
31077,94.928,54.227,13.261,2.99E+06
31078,95.257,52.069,16.601,5.96E+06
31079,95.257,52.069,12.391,4.58E+06
31080,97.463,53.494,14.324,4.47E+06
31081,94.976,50.524,14.97,6.58E+06
31082,96.633,51.181,13.934,6.80E+06
31083,94.577,53.707,10.861,3.28E+06
31084,94.699,49.735,10.755,5.24E+06
31085,94.974,51.509,9.9917,4.22E+06
31086,94.693,49.965,12.57,6.39E+06
31087,116.18,31.251,14.284,4.50E+06
31088,117.75,32.316,14.492,2.13E+06
31089,117.92,32.444,10.68,1.72E+06
31090,115.17,33.161,10.567,1.30E+07
31091,116.26,33.842,12.604,7.73E+06
31092,114.56,32.298,12.879,1.28E+07
31093,117.32,31.995,16.602,2.85E+06
31094,114.92,32.423,17.075,9.66E+06
31095,115.8,33.567,14.714,8.25E+06
31096,114.1,32.023,14.989,1.37E+07
31097,99.357,58.465,16.289,5.57E+06
31098,98.612,57.956,13.52,4.89E+06
31099,96.658,56.285,13.839,2.32E+06
31100,98.68,56.062,19.068,5.09E+06
31101,97.573,54.863,19.068,5.01E+06
31102,96.931,54.16,17.179,3.73E+06
31103,99.516,55.254,17.205,6.75E+06
31104,99.138,55.584,14.902,6.68E+06
31105,103.86,60.455,15.921,1.01E+07
31106,103.04,60.211,13.25,9.68E+06
31107,100.75,59.262,13.174,7.88E+06
31108,101.62,56.602,16.858,7.21E+06
31109,103.64,57.948,16.992,8.29E+06
31110,103.1,58.435,14.611,8.21E+06
31111,101.24,56.932,14.555,7.22E+06
31112,108.68,60.985,15.896,1.19E+07
31113,107.83,60.999,13.228,1.22E+07
31114,105.4,60.788,13.228,1.15E+07
31115,105.98,58.576,16.971,9.37E+06
31116,107.56,59.501,17.261,1.04E+07
31117,105.44,59.063,14.59,9.05E+06
31118,107.92,58.744,15.044,9.22E+06
31119,113.45,60.044,15.893,1.11E+07
31120,112.63,60.314,13.225,1.17E+07
31121,110.26,60.84,13.225,1.26E+07
31122,109.99,59.397,17.257,1.07E+07
31123,110.35,58.641,15.041,9.88E+06
31124,111.71,58.923,17.034,1.02E+07
31125,117.71,57.718,15.892,8.01E+06
31126,117.02,58.218,13.225,8.81E+06
31127,114.9,59.433,13.225,1.09E+07
31128,115.49,57.278,18.696,1.02E+07
31129,115.06,56.366,16.892,8.60E+06
31130,116.83,56.084,17.378,6.90E+06
31131,114.65,56.632,14.407,8.39E+06
31132,112.63,57.814,15.041,8.60E+06
31133,113.99,58.096,17.033,9.73E+06
31134,121.08,54.216,15.899,3.24E+06
31135,120.57,54.901,13.23,4.00E+06
31136,118.92,56.697,13.225,6.65E+06
31137,116.99,54.893,16.892,7.72E+06
31138,118.76,54.611,17.378,6.46E+06
31139,118.29,53.958,14.729,6.71E+06
31140,116.58,55.159,14.407,7.03E+06
31141,122.97,50.658,13.251,1.90E+06
31142,121.93,52.876,13.237,1.58E+06
31143,123.25,49.856,15.876,2.15E+06
31144,121.5,50.278,17.177,2.78E+06
31145,120.16,52.623,17.384,4.42E+06
31146,119.69,51.971,14.736,5.45E+06
31147,120.86,50.389,14.713,4.33E+06
31148,119.48,51.008,16.723,5.98E+06
31149,123.18,39.951,15.687,7.70E+06
31150,123.59,41.381,13.104,8.44E+06
31151,123.93,43.509,13.234,7.90E+06
31152,124,45.033,15.892,6.18E+06
31153,121.9,41.048,16.8,4.64E+06
31154,121.55,43.557,16.896,3.79E+06
31155,122.47,43.412,14.425,5.20E+06
31156,121.26,41.243,15.083,3.88E+06
31157,120.63,35.182,16.124,5.34E+06
31158,121.79,36.883,12.693,7.65E+06
31159,122.75,38.799,12.855,8.37E+06
31160,121.05,38.481,16.55,5.55E+06
31161,120.41,38.677,14.834,5.18E+06
31162,118.95,33.33,12.998,2.90E+06
31163,120.22,34.67,13.379,4.97E+06
31164,118.75,35.49,19.155,4.55E+06
31165,117.61,34.255,19.155,5.95E+06
31166,116.46,33.526,17.283,7.93E+06
31167,117.34,34.67,14.923,7.73E+06
31168,119.39,36.347,17.237,3.75E+06
31169,117.13,35.518,17.193,8.97E+06
31170,118.75,36.543,15.52,4.32E+06
31171,120.35,34.83,9.5669,4.90E+06
31172,118.9,35.632,7.3431,3.32E+06
31173,117.77,34.397,7.3431,6.40E+06
31174,116.4,34.131,9.0734,1.14E+07
31175,117.88,36.337,9.2541,6.18E+06
31176,117.49,34.812,11.11,6.91E+06
31177,122.48,38.196,10.11,7.83E+06
31178,120.08,37.056,7.7238,4.42E+06
31179,119.06,37.761,9.6348,6.02E+06
31180,118.66,36.236,11.491,5.79E+06
31181,120.9,38.824,9.5179,4.65E+06
31182,120.07,38.109,12.089,4.95E+06
31183,123.77,42.289,10.402,8.09E+06
31184,121.81,40.76,9.6801,5.68E+06
31185,122.2,42.214,11.593,5.23E+06
31186,120.98,40.045,12.251,4.75E+06
31187,123.9,46.806,10.564,5.61E+06
31188,123.97,45.959,13.19,6.20E+06
31189,122.19,45.177,8.016,6.26E+06
31190,121.16,44.945,9.9246,4.07E+06
31191,122.17,42.88,9.8101,5.16E+06
31192,122,47.011,9.5237,3.47E+06
31193,122.56,44.333,11.723,5.33E+06
31194,122.64,51.449,10.583,1.85E+06
31195,123.65,48.312,13.222,4.28E+06
31196,120.89,47.298,9.957,4.74E+06
31197,121.73,49.364,9.5561,4.33E+06
31198,121.42,48.897,12.059,4.41E+06
31199,122.29,46.686,11.755,3.77E+06
31200,120.02,55.559,10.563,4.51E+06
31201,119.76,53.31,8.0342,4.69E+06
31202,120.75,51.598,9.542,3.98E+06
31203,118.7,53.669,9.4527,5.25E+06
31204,119.27,52.714,12.068,5.83E+06
31205,120.44,51.132,12.045,4.17E+06
31206,116.3,58.681,10.558,8.88E+06
31207,116.8,56.388,8.0293,6.81E+06
31208,117.09,55.496,9.4477,6.73E+06
31209,117.66,54.541,12.063,6.47E+06
31210,115.96,55.742,11.74,7.44E+06
31211,111.81,60.54,10.557,1.15E+07
31212,114.72,57.647,8.0286,7.51E+06
31213,112.6,57.885,9.5386,8.36E+06
31214,115.01,56.756,9.447,6.47E+06
31215,113.88,57.001,11.739,8.07E+06
31216,111.86,58.183,12.373,9.09E+06
31217,106.97,60.967,10.557,1.13E+07
31218,108.58,58.835,8.0285,8.83E+06
31219,107.56,57.99,10.06,7.78E+06
31220,110.24,58.463,9.5386,8.79E+06
31221,107.02,59.08,11.919,8.41E+06
31222,109.5,58.761,12.373,9.92E+06
31223,106.58,59.2,9.5323,7.97E+06
31224,102.19,59.907,10.481,8.62E+06
31225,104.6,58.924,11.919,8.82E+06
31226,104.16,59.044,9.5326,8.63E+06
31227,97.844,57.363,10.724,4.16E+06
31228,99.976,57.001,7.9525,6.76E+06
31229,100.23,55.991,9.3726,7.65E+06
31230,102.3,58.026,11.843,7.42E+06
31231,100.43,56.524,11.787,7.44E+06
31232,101.85,58.146,9.4563,7.48E+06
31233,96.889,54.175,8.2713,4.65E+06
31234,96.247,53.472,10.173,4.02E+06
31235,98.252,54.364,9.6914,7.23E+06
31236,98.454,54.897,12.105,6.33E+06
31237,97.623,52.584,11.716,7.03E+06
31238,121.54,46,16.852,3.68E+06
31239,122.24,47.955,17.148,2.94E+06
31240,121.6,48.066,14.685,3.94E+06
31241,122.47,45.855,14.381,4.11E+06
31242,-9.2407,32.447,103.65,1.77E+07
31243,-9.3745,32.195,106,1.51E+07
31244,-11,8.5356,61.221,1.65E+08
31245,-11,3.5711,63.294,9.96E+07
31246,-11,2.8233,58.23,1.74E+08
31247,-11,6.2116,63.506,1.29E+08
31248,-11,2.253,61.062,1.16E+08
31249,-11,5.0653,57.566,1.13E+08
31250,-11,7.3536,59.206,1.21E+08
31251,-8.6885,6.7994,61.91,1.46E+08
31252,-9.1496,4.0585,61.501,1.28E+08
31253,-9.2316,6.1776,58.054,1.47E+08
31254,-8.6819,4.4902,58.707,1.78E+08
31255,-9.0697,7.7644,59.394,1.49E+08
31256,-8.0532,5.4669,60.53,1.59E+08
31257,-9.7877,7.7077,62.886,1.43E+08
31258,-9.1296,5.1268,63.619,1.19E+08
31259,-9.9983,3.5438,59.871,1.34E+08
31260,-11,41.192,93.826,5.56E+07
31261,-11,44.029,92.378,5.31E+07
31262,-11,43.863,88.569,5.18E+07
31263,-11,41.466,87.456,6.49E+07
31264,-11,38.731,93.039,6.17E+07
31265,-11,44.613,90.251,5.15E+07
31266,-11,40.224,89.222,7.12E+07
31267,-8.8887,43.499,89.553,4.59E+07
31268,-8.9444,41.537,89.003,5.26E+07
31269,-9.081,39.834,90.628,5.38E+07
31270,-8.6236,44.186,91.551,4.19E+07
31271,-9.2041,41.999,91.632,4.84E+07
31272,-11,12.441,59.605,2.54E+08
31273,-11,14.443,63.012,3.37E+08
31274,-11,11.529,65.425,2.59E+08
31275,-11,9.1652,64.402,1.98E+08
31276,-11,10.307,60.102,1.92E+08
31277,-8.6885,9.7531,62.806,1.96E+08
31278,-8.5271,12.771,61.7,2.37E+08
31279,-9.1369,13.075,64.126,2.41E+08
31280,-9.0697,10.718,60.29,2.03E+08
31281,-9.7877,10.661,63.782,2.14E+08
31282,-11,-7.7289,61.442,1.69E+08
31283,-11,-5.4535,60.95,1.91E+08
31284,-11,-3.5437,62.817,1.42E+08
31285,-11,-4.5177,65.359,1.15E+08
31286,-11,-9.3132,62.614,1.40E+08
31287,-8.7762,-4.8993,62.564,1.29E+08
31288,-9.0746,-7.6285,62.593,1.02E+08
31289,-9.036,-3.5486,64.513,1.09E+08
31290,-8.5753,-7.2629,64.931,6.61E+07
31291,-8.8532,-5.1285,66.111,6.85E+07
31292,-9.845,-6.692,65.846,8.55E+07
31293,-9.7261,-8.5398,64.517,8.98E+07
31294,-8.1187,-5.6196,64.037,9.48E+07
31295,-11,11.229,55.263,1.71E+08
31296,-11,15.841,54.988,3.34E+08
31297,-11,15.394,60.501,3.47E+08
31298,-11,16.217,57.58,3.86E+08
31299,-11,13.394,54.106,2.33E+08
31300,-11,11.259,57.59,2.00E+08
31301,-8.7267,14.513,55.595,2.50E+08
31302,-8.5271,13.722,59.188,2.44E+08
31303,-9.0697,11.669,57.778,2.08E+08
31304,-9.1488,15.677,58.141,2.99E+08
31305,-8.4113,11.833,55.279,2.06E+08
31306,-11,17.088,67.441,3.97E+08
31307,-11,14.175,69.854,3.18E+08
31308,-11,19.271,72.467,3.59E+08
31309,-11,19.029,70.197,4.12E+08
31310,-9.0227,18.178,71.263,2.79E+08
31311,-9.5427,18.233,73.412,2.75E+08
31312,-9.0243,15.213,72.115,2.54E+08
31313,-9.1996,17.731,69.181,3.16E+08
31314,-9.1369,15.721,68.555,2.95E+08
31315,-8.2901,15.196,70.497,2.50E+08
31316,-9.1427,16.736,73.139,2.59E+08
31317,-11,32.603,87.286,1.23E+08
31318,-11,29.547,82.426,1.87E+08
31319,-11,33.522,84.266,1.33E+08
31320,-11,31.801,82.714,1.59E+08
31321,-8.8434,29.556,84.692,1.16E+08
31322,-9.6234,31.214,87.088,1.10E+08
31323,-8.7685,33.593,85.984,1.03E+08
31324,-9.0933,30.973,82.168,1.30E+08
31325,-9.2351,32.771,82.795,1.21E+08
31326,-8.0669,31.562,84.264,1.05E+08
31327,-11,43.064,95.741,4.92E+07
31328,-11,37.766,96.402,5.77E+07
31329,-11,38.522,98.64,4.93E+07
31330,-11,44.115,98.041,4.48E+07
31331,-8.634,42.469,96.99,3.67E+07
31332,-8.5993,39.775,98.969,3.36E+07
31333,-8.2065,39.566,96.016,3.77E+07
31334,-9.208,41.882,98.936,3.65E+07
31335,-8.7813,37.843,97.645,3.65E+07
31336,-9.2041,41.034,94.995,4.44E+07
31337,-11,6.8074,54.119,8.90E+07
31338,-11,11.231,52.275,1.40E+08
31339,-11,9.0957,55.759,1.14E+08
31340,-11,9.1066,51.049,5.95E+07
31341,-9.5439,10.729,50.983,1.25E+08
31342,-9.2316,7.9197,54.608,1.31E+08
31343,-9.0697,9.5066,55.948,1.40E+08
31344,-9.0945,8.2209,52.23,1.49E+08
31345,-8.4113,9.67,53.448,1.54E+08
31346,-11,46.952,96.593,4.25E+07
31347,-11,46.485,92.166,4.54E+07
31348,-8.634,45.306,95.542,3.43E+07
31349,-9.6291,47.915,93.989,3.56E+07
31350,-8.6236,46.058,93.466,3.58E+07
31351,-9.2041,43.871,93.547,4.19E+07
31352,-11,4.2007,66.476,1.08E+08
31353,-11,0.24212,64.032,1.12E+08
31354,-11,-0.73189,66.574,8.47E+07
31355,-9.036,0.23725,65.728,9.22E+07
31356,-9.1857,1.2793,67.991,6.90E+07
31357,-9.1496,2.0477,64.471,1.19E+08
31358,-9.1296,3.1159,66.588,1.07E+08
31359,-11,18.666,55.475,4.58E+08
31360,-11,15.843,52,3.05E+08
31361,-11,20.812,52.833,5.11E+08
31362,-9.5176,17.813,50.54,3.28E+08
31363,-9.6671,21.112,51.717,4.04E+08
31364,-9.1155,19.622,53.967,3.83E+08
31365,-8.3443,19.337,51.545,3.36E+08
31366,-8.7267,16.962,53.49,3.15E+08
31367,-11,43.171,85.562,5.69E+07
31368,-11,45.829,84.159,3.31E+07
31369,-11,46.319,88.357,4.37E+07
31370,-8.8887,45.204,87.659,3.81E+07
31371,-8.8621,44.756,85.491,3.93E+07
31372,-8.9444,43.243,87.11,4.48E+07
31373,-9.2781,46.967,86.26,3.31E+07
31374,-11,14.483,66.321,3.52E+08
31375,-11,18.219,60.988,4.70E+08
31376,-11,19.337,66.664,4.45E+08
31377,-9.1996,18.04,65.648,3.50E+08
31378,-8.5271,15.725,62.596,3.20E+08
31379,-8.7725,19.107,63.474,3.72E+08
31380,-9.1369,16.029,65.022,3.29E+08
31381,-9.1488,17.68,61.549,3.77E+08
31382,-8.8351,17.401,63.612,3.53E+08
31383,-11,-2.4154,57.102,2.63E+08
31384,-11,-0.50566,58.968,2.10E+08
31385,-11,2.3066,55.471,2.09E+08
31386,-9.183,-0.88482,54.934,2.75E+08
31387,-9.082,-0.62013,57.331,2.25E+08
31388,-9.3466,1.5825,53.652,2.89E+08
31389,-8.6819,1.7316,56.613,2.32E+08
31390,-9.9983,0.78515,57.777,2.15E+08
31391,-11,43.432,83.045,4.81E+07
31392,-11,38.4,84.083,9.49E+07
31393,-11,39.532,86.215,7.73E+07
31394,-8.8621,42.359,84.377,5.36E+07
31395,-8.9444,40.846,85.996,5.86E+07
31396,-8.7685,38.471,85.8,6.45E+07
31397,-8.9234,39.932,83.172,6.69E+07
31398,-8.6762,42.415,81.803,5.09E+07
31399,-11,34.746,92.686,7.98E+07
31400,-11,35.107,86.738,1.05E+08
31401,-11,36.239,88.87,8.96E+07
31402,-9.6234,32.798,89.56,8.40E+07
31403,-8.9178,33.811,91.626,6.65E+07
31404,-8.7685,35.178,88.455,7.65E+07
31405,-9.081,35.849,90.275,7.19E+07
31406,-11,-7.1709,58.558,2.22E+08
31407,-11,-11.732,58.411,1.81E+08
31408,-11,-11.031,60.222,1.68E+08
31409,-9.067,-9.6055,57.336,1.52E+08
31410,-9.0746,-9.346,60.201,1.31E+08
31411,-8.5728,-7.6763,58.143,1.64E+08
31412,-9.3696,-10.869,58.625,1.38E+08
31413,-11,9.2051,67.711,2.11E+08
31414,-9.4575,8.8807,69.454,1.85E+08
31415,-8.6069,10.736,70.124,1.81E+08
31416,-9.0243,12.607,70.995,2.10E+08
31417,-9.1369,13.115,67.435,2.55E+08
31418,-9.7877,10.701,67.091,2.27E+08
31419,-8.2901,12.59,69.377,2.10E+08
31420,-11,21.188,55.426,5.63E+08
31421,-9.1155,19.998,56.56,4.33E+08
31422,-8.7267,17.338,56.083,3.65E+08
31423,-9.2197,20.954,58.408,4.52E+08
31424,-8.7725,19.929,60.554,4.10E+08
31425,-9.1488,18.502,58.628,4.17E+08
31426,-11,36.06,97.853,5.54E+07
31427,-11,36.797,91.798,7.24E+07
31428,-9.5406,33.472,96.473,4.43E+07
31429,-8.2065,37.104,95.229,4.35E+07
31430,-8.9178,34.369,94.554,5.06E+07
31431,-9.081,36.407,93.203,5.55E+07
31432,-8.7813,35.382,96.858,4.26E+07
31433,-9.2041,38.572,94.208,5.03E+07
31434,-9.4575,6.5167,68.43,1.29E+08
31435,-9.7877,8.3373,66.067,1.70E+08
31436,-9.1296,5.7564,66.8,1.35E+08
31437,-9.1248,47.248,81.005,1.90E+07
31438,-8.8621,45.016,82.974,3.04E+07
31439,-9.2781,47.227,83.742,2.25E+07
31440,-8.6762,45.073,80.4,2.91E+07
31441,-10.238,47.59,79.808,1.38E+07
31442,-11,-2.9858,59.934,1.95E+08
31443,-9.183,-3.3649,55.899,2.79E+08
31444,-8.7762,-4.3413,59.681,1.80E+08
31445,-9.0746,-7.0706,59.71,1.56E+08
31446,-9.082,-3.1003,58.297,2.19E+08
31447,-8.5728,-5.4009,57.651,1.90E+08
31448,-11,-2.05,64.342,1.19E+08
31449,-8.7762,-2.4315,61.547,1.35E+08
31450,-9.036,-1.0809,63.496,1.13E+08
31451,-9.1496,0.72954,62.239,1.36E+08
31452,-9.082,-1.1905,60.163,1.75E+08
31453,-9.9983,0.2148,60.609,1.55E+08
31454,-11,22.687,75.876,3.21E+08
31455,-11,21.52,71.69,4.05E+08
31456,-9.0227,20.669,72.756,2.72E+08
31457,-9.5427,20.724,74.905,2.72E+08
31458,-9.1352,22.817,74.263,2.59E+08
31459,-11,25.844,78.915,2.57E+08
31460,-11,30.33,80.326,1.97E+08
31461,-9.1975,26.855,80.18,1.74E+08
31462,-8.8434,28.085,82.304,1.50E+08
31463,-9.0933,29.501,79.78,1.67E+08
31464,-8.6966,28.228,77.798,1.70E+08
31465,-9.4604,35.336,101.48,3.20E+07
31466,-8.5993,38.069,100.42,3.14E+07
31467,-8.7813,36.138,99.096,3.44E+07
31468,-11,6.8369,56.447,9.91E+07
31469,-9.3466,3.8244,52.987,2.42E+08
31470,-9.2316,5.6609,55.295,1.45E+08
31471,-8.6819,3.9735,55.948,1.79E+08
31472,-9.0945,5.962,52.918,1.65E+08
31473,-11,11.272,49.892,1.09E+08
31474,-9.5439,12.895,49.826,1.72E+08
31475,-9.5176,15.366,49.657,2.32E+08
31476,-8.7267,14.515,52.608,2.25E+08
31477,-8.4113,11.835,52.291,1.83E+08
31478,-8.634,46.357,97.842,3.03E+07
31479,-9.6291,48.966,96.289,3.13E+07
31480,-9.3583,48.919,99.668,3.05E+07
31481,-8.5933,49.1,97.546,2.94E+07
31482,-9.208,45.77,99.788,3.00E+07
31483,-10.08,47.341,100.85,3.22E+07
31484,-9.6671,23.634,51.668,5.11E+08
31485,-9.1155,22.144,53.918,4.88E+08
31486,-9.0183,25.215,53.904,4.94E+08
31487,-9.2316,7.9491,56.935,1.43E+08
31488,-9.0697,9.536,58.275,1.60E+08
31489,-11,37.158,85.85,9.96E+07
31490,-11,34.305,82.166,1.44E+08
31491,-8.7685,36.097,85.435,8.61E+07
31492,-8.9234,37.558,82.806,8.86E+07
31493,-9.2351,35.275,82.247,1.06E+08
31494,-11,-13.316,59.584,1.51E+08
31495,-9.143,-15.69,57.316,1.10E+08
31496,-9.7517,-14.372,59.949,1.06E+08
31497,-9.5263,-13.315,55.879,1.39E+08
31498,-9.3696,-13.154,57.986,1.21E+08
31499,-9.6267,8.4388,47.464,1.43E+08
31500,-9.5439,10.77,48.6,1.05E+08
31501,-9.0945,8.2612,49.847,1.43E+08
31502,-9.036,-2.0549,66.038,9.25E+07
31503,-9.1857,-1.0128,68.301,6.41E+07
31504,-8.8532,-3.6348,67.636,5.07E+07
31505,-8.8887,45.955,89.34,3.79E+07
31506,-9.0213,48.505,89.827,3.21E+07
31507,-9.6291,48.499,91.862,3.44E+07
31508,-9.2781,47.717,87.941,3.32E+07
31509,-8.6236,46.642,91.339,3.44E+07
31510,-8.9444,39.604,87.763,6.40E+07
31511,-8.7685,37.229,87.567,6.99E+07
31512,-9.081,37.9,89.387,6.50E+07
31513,-9.5427,21.649,76.822,2.40E+08
31514,-9.1975,24.623,79.057,2.07E+08
31515,-8.7376,22.736,78.596,1.96E+08
31516,-9.1352,23.742,76.18,2.25E+08
31517,-9.0746,-10.93,61.374,1.02E+08
31518,-9.7517,-13.671,61.761,9.45E+07
31519,-9.3696,-12.453,59.798,1.09E+08
31520,-9.7261,-11.842,63.297,8.96E+07
31521,-9.0227,20.427,70.486,3.27E+08
31522,-9.1996,19.98,68.404,3.66E+08
31523,-9.1696,22.478,68.668,3.69E+08
31524,-9.0933,31.756,80.068,1.40E+08
31525,-9.2351,33.554,80.695,1.32E+08
31526,-10.541,16.804,45.881,2.88E+08
31527,-9.4072,11.192,45.892,1.51E+08
31528,-9.3245,13.523,47.027,1.85E+08
31529,-9.2982,15.994,46.859,2.44E+08
31530,-9.2779,18.145,47.219,3.07E+08
31531,-10.541,20.467,46.527,3.89E+08
31532,-9.4475,24.15,48.893,4.39E+08
31533,-9.318,26.427,49.043,4.24E+08
31534,-10.561,23.172,47.024,4.51E+08
31535,39.735,-19.678,-43.4,4.13E+06
31536,38.084,-18.187,-44.321,1.06E+07
31537,37.984,-18.072,-46.405,8.09E+06
31538,39.041,-18.95,-47.839,9.60E+06
31539,39.746,-19.666,-23.035,1.28E+08
31540,38.962,-18.679,-21.344,1.42E+08
31541,39.707,-19.707,-28.111,7.67E+07
31542,38.28,-18.713,-26.587,9.51E+07
31543,38.924,-18.721,-23.986,1.15E+08
31544,39.707,-19.707,-32.979,3.56E+07
31545,38.127,-18.164,-31.53,6.02E+07
31546,38.28,-18.713,-29.021,7.27E+07
31547,39.712,-19.702,-38.032,1.18E+07
31548,38.127,-18.164,-33.964,4.30E+07
31549,38.06,-18.397,-36.29,3.33E+07
31550,38.748,-18.779,-37.318,2.36E+07
31551,38.066,-18.206,-41.572,1.59E+07
31552,38.753,-18.774,-39.937,1.77E+07
31553,39.683,-5.4269,-59.954,1.77E+06
31554,38.806,-2.5657,-59.56,1.66E+06
31555,39.04,-7.9288,-58.869,4.43E+06
31556,39.807,-0.41225,-54.742,5.85E+06
31557,38.971,-1.2209,-58.054,4.11E+06
31558,39.602,-0.20151,-7.0463,2.09E+08
31559,37.978,-1.6787,-4.9036,1.41E+08
31560,38.621,-0.86715,-2.7136,1.54E+08
31561,38.864,-1.1347,-6.4108,1.76E+08
31562,39.648,-0.23827,-13.951,2.65E+08
31563,38.846,-1.1215,-10.163,2.28E+08
31564,39.707,-0.29308,-19.591,2.63E+08
31565,38.245,-1.8998,-14.898,2.20E+08
31566,38.878,-1.4947,-18.014,2.42E+08
31567,38.908,-1.1738,-13.315,2.32E+08
31568,39.707,-0.29308,-24.564,2.45E+08
31569,38.878,-1.4947,-20.501,2.35E+08
31570,38.963,-1.5486,-22.789,2.33E+08
31571,39.707,-0.29308,-29.538,2.10E+08
31572,38.404,-1.2333,-27.104,2.14E+08
31573,38.963,-1.5486,-25.276,2.22E+08
31574,38.68,-1.4426,-28.877,2.04E+08
31575,39.707,-0.29308,-34.512,1.71E+08
31576,38.783,-0.97382,-33.385,1.71E+08
31577,38.68,-1.4426,-31.364,1.81E+08
31578,39.707,-0.29308,-39.486,1.34E+08
31579,38.467,-1.3284,-38.48,1.38E+08
31580,38.783,-0.97382,-35.872,1.57E+08
31581,39.707,-0.29308,-44.459,8.68E+07
31582,38.467,-1.3284,-40.967,1.16E+08
31583,38.706,-1.2411,-43.893,9.11E+07
31584,39.726,-0.31212,-49.568,3.92E+07
31585,38.706,-1.2411,-46.38,6.64E+07
31586,38.785,-1.3846,-49.113,4.55E+07
31587,38.803,-1.4039,-51.734,2.48E+07
31588,35.099,-0.33708,-60.434,2.83E+06
31589,37.6,-1.1437,-59.627,2.90E+06
31590,27.067,-0.24948,-60.346,6.01E+07
31591,25.048,-1.1747,-59.322,9.58E+07
31592,31.077,-0.33101,-60.428,1.37E+07
31593,33,-1.2762,-59.057,1.38E+07
31594,27.058,-1.2512,-59.409,6.32E+07
31595,29.006,-2.134,-59.185,3.32E+07
31596,81.604,34.101,15.949,4.91E+07
31597,80.362,32.746,13.824,4.83E+07
31598,78.26,30.452,17.069,6.07E+07
31599,79.091,31.358,15.24,5.46E+07
31600,81.226,33.689,17.875,5.63E+07
31601,80.505,29.883,17.351,4.93E+07
31602,81.982,31.606,18.261,4.92E+07
31603,83.437,33.103,17.029,4.23E+07
31604,82.548,32.942,15.01,4.20E+07
31605,80.969,30.777,15.056,4.44E+07
31606,82.864,31.066,16.163,4.01E+07
31607,74.481,26.327,14,6.28E+07
31608,71.719,23.313,16.833,7.82E+07
31609,74.973,26.865,17.069,6.92E+07
31610,72.851,24.549,14,6.68E+07
31611,73.389,22.497,17.694,6.84E+07
31612,75.051,24.364,17.576,6.40E+07
31613,76.11,25.352,15.61,5.65E+07
31614,74.837,23.316,15.523,5.67E+07
31615,65.166,16.162,13.925,8.72E+07
31616,67.758,18.991,13.626,7.97E+07
31617,64.397,15.323,16.6,1.00E+08
31618,68.256,19.534,16.459,8.74E+07
31619,66.494,17.612,13.259,8.14E+07
31620,65.846,14.898,17.825,9.27E+07
31621,68.311,17.026,17.052,8.08E+07
31622,67.599,16.488,14.473,7.44E+07
31623,67.187,15.01,16.183,7.73E+07
31624,84.21,36.945,12.838,3.49E+07
31625,82.031,34.567,12.94,4.11E+07
31626,85.128,37.947,14.649,3.58E+07
31627,84.344,37.091,16.56,4.10E+07
31628,82.895,35.51,16.991,4.92E+07
31629,85.106,34.924,16.145,3.52E+07
31630,84.216,34.763,14.126,3.48E+07
31631,63.127,13.937,14.44,9.56E+07
31632,62.233,12.962,12.273,9.02E+07
31633,65.224,16.225,11.099,7.70E+07
31634,62.377,13.119,10.229,8.07E+07
31635,66.026,14.529,9.9614,6.12E+07
31636,64.607,13.079,9.9246,6.34E+07
31637,66.328,15.101,12.312,7.00E+07
31638,63.954,12.089,13.434,7.79E+07
31639,65.917,13.623,14.022,7.29E+07
31640,66.236,12.512,12.044,5.82E+07
31641,69.578,20.977,14,7.55E+07
31642,70.71,22.212,11.167,6.41E+07
31643,67.816,19.054,10.8,6.96E+07
31644,69.632,18.468,14.593,6.90E+07
31645,70.405,19.049,9.7501,5.06E+07
31646,72.02,20.373,9.9072,4.75E+07
31647,71.511,19.629,12.111,5.41E+07
31648,68.92,17.93,12.014,6.26E+07
31649,76.091,28.085,14.236,5.87E+07
31650,73.969,25.769,11.167,5.63E+07
31651,76.922,28.992,12.407,5.27E+07
31652,76.46,25.564,9.7374,3.88E+07
31653,76.625,27.185,9.1824,4.12E+07
31654,78.212,28.512,9.301,3.76E+07
31655,77.228,26.572,12.777,4.61E+07
31656,78.819,26.867,10.369,3.41E+07
31657,75.955,24.536,12.69,4.63E+07
31658,61.465,12.123,14.949,1.03E+08
31659,61.018,11.635,16.689,1.14E+08
31660,62.163,10.723,18.277,1.06E+08
31661,63.806,12.672,18.34,1.01E+08
31662,63.186,11.25,16.11,9.07E+07
31663,65.148,12.785,16.698,8.58E+07
31664,82.968,35.59,10.713,3.40E+07
31665,86.066,38.97,12.422,2.88E+07
31666,87.038,37.292,8.0556,1.71E+07
31667,85.762,35.655,9.4994,2.10E+07
31668,87.808,37.736,9.5741,1.79E+07
31669,85.154,35.786,11.899,2.78E+07
31670,88.018,37.206,12.074,2.09E+07
31671,86.821,35.399,11.012,2.07E+07
31672,79.517,31.823,12.231,4.66E+07
31673,80.806,31.344,9.1249,3.16E+07
31674,83.582,33.277,9.6011,2.69E+07
31675,82.974,33.407,12.001,3.40E+07
31676,81.395,31.243,12.047,3.64E+07
31677,82.882,31.362,10.87,2.84E+07
31678,82.833,31.801,8.9738,2.52E+07
31679,86.199,39.116,16.144,3.50E+07
31680,86.961,36.949,15.729,2.92E+07
31681,88.094,39.204,15.906,2.86E+07
31682,88.727,38.738,11.385,1.88E+07
31683,89.644,40.59,13.168,1.93E+07
31684,86.072,36.788,13.71,2.88E+07
31685,88.936,38.208,13.885,2.18E+07
31686,60.125,10.661,14.522,1.08E+08
31687,60.716,11.306,10.738,8.81E+07
31688,61.208,9.0107,12.474,8.04E+07
31689,62.945,11.266,10.434,7.08E+07
31690,62.293,10.276,13.944,8.53E+07
31691,71.207,22.755,14,7.17E+07
31692,70.13,19.011,17.426,7.66E+07
31693,71.746,20.704,17.694,7.33E+07
31694,72.009,20.173,14.944,6.17E+07
31695,73.194,21.522,15.523,6.16E+07
31696,77.414,29.529,15.476,5.91E+07
31697,78.191,26.728,19.903,5.87E+07
31698,76.662,26.121,17.812,6.00E+07
31699,78.829,28.054,17.587,5.37E+07
31700,77.721,27.109,15.846,5.24E+07
31701,74.83,23.786,9.7374,4.27E+07
31702,73.65,22.151,9.9072,4.37E+07
31703,73.141,21.408,12.111,5.03E+07
31704,74.326,22.758,12.69,5.02E+07
31705,79.66,28.96,15.757,4.76E+07
31706,79.535,29.956,10.541,3.79E+07
31707,78.551,28.016,14.017,4.64E+07
31708,80.124,29.855,13.463,4.27E+07
31709,80.142,28.311,11.609,3.44E+07
31710,83.966,36.678,18.486,4.81E+07
31711,87.231,36.686,19.778,3.80E+07
31712,86.177,36.093,17.64,3.43E+07
31713,87.309,38.348,17.817,3.37E+07
31714,83.273,33.015,19.303,4.93E+07
31715,84.728,34.512,18.071,4.23E+07
31716,60.761,8.5226,14.214,9.13E+07
31717,60.823,9.2601,17.85,1.12E+08
31718,61.845,9.7875,15.683,9.62E+07
31719,59.581,7.4301,16.185,1.02E+08
31720,67.355,15.979,9.2963,5.55E+07
31721,69.141,17.67,9.3837,5.23E+07
31722,67.657,16.551,11.647,6.42E+07
31723,61.352,9.1677,10.429,7.10E+07
31724,63.089,11.423,8.3895,6.13E+07
31725,61.377,8.8499,8.5072,5.96E+07
31726,61.143,10.695,7.5322,6.81E+07
31727,10.707,28.328,-43.663,6.15E+07
31728,8.8075,32.992,-44.153,1.71E+07
31729,11.156,32.157,-44.066,1.79E+07
31730,8.2539,29.198,-43.754,5.79E+07
31731,11.523,30.095,-43.849,2.87E+07
31732,7.9346,30.979,-43.942,2.45E+07
31733,9.8519,31.427,-45.529,2.30E+07
31734,9.4315,28.958,-45.445,4.67E+07
31735,7.7206,30.94,-45.339,2.25E+07
31736,-10.707,28.328,-43.663,4.94E+07
31737,-8.8075,32.992,-44.153,1.37E+07
31738,-11.156,32.157,-44.066,1.42E+07
31739,-8.2539,29.198,-43.754,5.14E+07
31740,-11.523,30.095,-43.849,2.26E+07
31741,-7.9346,30.979,-43.942,2.09E+07
31742,-9.5206,29.119,-45.346,3.85E+07
31743,-11.579,7.3914,-41.463,1.23E+08
31744,-13.553,10.345,-41.773,1.80E+08
31745,-16.193,5.4969,-42.419,1.17E+08
31746,-15.275,8.2966,-42.844,1.24E+08
31747,-12.568,8.4689,-43.385,1.46E+08
31748,-14.014,6.1161,-43.31,1.14E+08
31749,11.587,7.411,-41.465,2.65E+08
31750,12.504,9.1075,-41.643,3.25E+08
31751,17.249,8.2522,-43.197,2.10E+08
31752,13.813,10.437,-43.815,2.40E+08
31753,13.946,5.8468,-43.174,2.00E+08
31754,15.595,9.0164,-44.426,2.36E+08
31755,15.78,10.065,-42.551,2.77E+08
31756,15.661,6.9322,-44.187,2.25E+08
31757,12.789,7.9036,-43.577,2.40E+08
31758,11.897,23.573,-43.163,1.58E+08
31759,9.2112,26.919,-43.515,7.44E+07
31760,12.48,27.817,-43.609,6.66E+07
31761,10.924,24.526,-45.31,1.14E+08
31762,13.076,23.659,-44.724,1.04E+08
31763,12.742,26.68,-45.285,6.95E+07
31764,10.389,26.679,-45.205,7.55E+07
31765,-11.897,23.573,-43.163,1.25E+08
31766,-9.2112,26.919,-43.515,6.40E+07
31767,-12.48,27.817,-43.609,5.37E+07
31768,-11.297,24.297,-44.902,9.79E+07
31769,-12.973,26.4,-45.618,5.56E+07
31770,-10.478,26.84,-45.107,6.19E+07
31771,-13.804,25.464,-44.396,5.71E+07
31772,-10.214,34.543,-44.316,4.02E+06
31773,-6.9921,33.364,-44.192,1.25E+07
31774,-8.8001,36.766,-46.64,2.58E+06
31775,-6.395,35.16,-45.852,4.03E+06
31776,-6.0711,37.264,-46.015,2.34E+06
31777,10.214,34.543,-44.316,5.90E+06
31778,6.9921,33.364,-44.192,1.37E+07
31779,8.9094,33.812,-45.78,9.95E+06
31780,6.103,35.019,-45.994,6.59E+06
31781,9.0082,36.398,-46.298,4.61E+06
31782,6.2587,37.264,-46.034,3.65E+06
31783,6.7781,33.325,-45.589,1.20E+07
31784,9.5932,8.4223,-41.571,3.16E+08
31785,6.5741,6.1759,-41.335,2.44E+08
31786,7.4897,5.6291,-43.063,2.00E+08
31787,11.035,5.1616,-43.102,1.99E+08
31788,9.8783,7.2184,-43.505,2.34E+08
31789,9.1751,4.5699,-43.313,1.93E+08
31790,-10.641,9.6791,-41.703,1.57E+08
31791,-6.5658,6.1759,-41.335,8.58E+07
31792,-9.6562,7.8033,-43.315,1.42E+08
31793,-7.3413,6.6721,-42.901,1.41E+08
31794,-8.6557,5.2547,-43.361,1.34E+08
31795,-11.102,5.4504,-43.24,1.26E+08
31796,-12.341,18.859,-42.668,2.04E+08
31797,-12.583,14.627,-42.223,2.33E+08
31798,-14.135,16.137,-43.527,2.00E+08
31799,-12.622,17.521,-45.659,1.90E+08
31800,-13.892,18.425,-43.873,1.70E+08
31801,-12.994,15.036,-44.052,1.92E+08
31802,12.341,18.859,-42.668,2.66E+08
31803,11.532,13.37,-42.091,3.44E+08
31804,12.841,14.7,-44.263,2.56E+08
31805,11.911,17.235,-43.906,2.83E+08
31806,13.926,16.207,-43.783,2.60E+08
31807,13.52,18.945,-44.228,2.17E+08
31808,12.929,31.646,-44.012,2.26E+07
31809,11.258,32.978,-45.692,1.15E+07
31810,13.555,33.95,-45.776,8.77E+06
31811,11.357,35.564,-46.21,7.22E+06
31812,-12.929,31.646,-44.012,1.70E+07
31813,-14.145,32.08,-45.302,8.83E+06
31814,-11.149,35.931,-46.552,4.33E+06
31815,-13.891,34.089,-45.696,4.59E+06
31816,-13.88,36.338,-46.012,2.60E+06
31817,11.699,19.473,-44.141,2.37E+08
31818,11.156,22.051,-45.05,1.69E+08
31819,13.308,21.183,-44.463,1.65E+08
31820,-12.41,19.759,-45.895,1.55E+08
31821,-11.529,21.822,-44.642,1.41E+08
31822,-13.68,20.664,-44.108,1.32E+08
31823,-14.036,22.989,-44.136,1.03E+08
31824,-6.4385,29.57,-43.794,5.07E+07
31825,-8.0245,27.71,-45.198,6.43E+07
31826,-5.5896,27.625,-44.918,7.30E+07
31827,6.4385,29.57,-43.794,5.67E+07
31828,5.8465,27.67,-45.794,7.60E+07
31829,7.9354,27.548,-45.297,7.34E+07
31830,6.2245,29.531,-45.19,5.42E+07
31831,-14.336,10.584,-43.084,1.64E+08
31832,-11.63,10.757,-43.625,1.79E+08
31833,-13.025,13.042,-43.842,1.87E+08
31834,-13.788,28.168,-45.804,3.06E+07
31835,-11.293,28.608,-45.293,3.53E+07
31836,-14.512,30.018,-45.085,2.02E+07
31837,13.558,28.448,-45.471,3.96E+07
31838,11.625,30.916,-45.475,2.40E+07
31839,13.921,31.888,-45.559,2.21E+07
31840,11.204,28.446,-45.391,4.28E+07
31841,2.2495,5.626,-41.277,1.68E+08
31842,-2.219,5.626,-41.277,7.21E+07
31843,0.15434,4.5939,-42.721,1.48E+08
31844,11.82,11.449,-43.922,2.94E+08
31845,10.796,8.9149,-43.683,2.91E+08
31846,2.3775,4.5939,-42.721,1.70E+08
31847,5.3882,5.0792,-43.006,2.13E+08
31848,3.7322,5.3977,-44.374,2.17E+08
31849,-2.091,4.5939,-42.721,1.19E+08
31850,-5.2399,6.1222,-42.843,1.42E+08
31851,-4.4556,4.461,-42.936,1.33E+08
31852,-7.7052,29.491,-45.385,3.36E+07
31853,-5.2703,29.406,-45.105,4.86E+07
31854,-5.522,33.148,-45.64,1.24E+07
31855,5.9052,31.312,-45.378,2.36E+07
31856,9.7761,-0.21703,-60.773,4.16E+08
31857,10.136,5.6463,-61.389,3.97E+08
31858,10.364,2.7476,-61.085,4.68E+08
31859,7.0029,-0.47317,-60.746,4.39E+08
31860,5.3473,1.9475,-61.001,5.14E+08
31861,9.3281,3.9603,-58.683,4.08E+08
31862,8.7177,5.9604,-59.691,3.97E+08
31863,9.0936,1.6388,-58.517,4.03E+08
31864,7.295,1.6853,-59.139,4.42E+08
31865,10.597,1.7742,-59.747,4.14E+08
31866,6.9628,3.9506,-59.739,5.12E+08
31867,-4.0364,1.9909,-61.005,4.57E+08
31868,-8.3089,-0.11207,-60.784,3.59E+08
31869,-4.6146,-0.95079,-60.696,3.87E+08
31870,-9.1886,2.2125,-61.028,3.72E+08
31871,-8.1639,4.1551,-61.233,3.98E+08
31872,-5.0032,3.0494,-58.841,4.18E+08
31873,-6.6192,0.97251,-58.351,3.52E+08
31874,-7.0371,4.0852,-59.576,4.14E+08
31875,-9.0465,2.1863,-59.201,3.46E+08
31876,-5.2927,0.8199,-59.476,3.81E+08
31877,0.24118,-1.3897,-60.65,4.27E+08
31878,-1.9789,-1.7098,-60.616,4.12E+08
31879,0.90461,1.2143,-60.923,4.92E+08
31880,-2.3675,2.2904,-58.761,4.37E+08
31881,-0.54197,2.4227,-59.546,4.90E+08
31882,-0.65819,0.40595,-59.074,4.13E+08
31883,-2.657,6.09E-02,-59.396,4.03E+08
31884,12.655,-0.16774,-60.778,3.63E+08
31885,14.578,-3.8822,-60.388,2.59E+08
31886,9.2943,-3.3885,-60.44,3.31E+08
31887,14.018,-1.8309,-60.603,3.35E+08
31888,13.071,-3.0211,-58.755,2.71E+08
31889,11.385,-1.2766,-58.21,3.03E+08
31890,9.5864,-1.23,-58.833,3.36E+08
31891,10.466,-2.8916,-58.238,2.85E+08
31892,11.666,-4.7792,-58.137,2.42E+08
31893,12.889,-1.1411,-59.44,3.15E+08
31894,-6.2514,-3.8128,-60.395,3.12E+08
31895,-10.825,-0.64958,-60.728,2.93E+08
31896,-12.401,-2.4794,-60.535,2.48E+08
31897,-12.229,-4.2968,-60.344,2.26E+08
31898,-8.256,-1.8895,-58.05,2.75E+08
31899,-11.239,-3.2095,-58.363,2.32E+08
31900,-10.683,-0.67578,-58.9,2.67E+08
31901,-8.1378,-3.989,-58.873,2.58E+08
31902,-6.9295,-2.0421,-59.175,3.04E+08
31903,10.707,26.237,-63.553,2.41E+07
31904,8.8075,30.901,-64.044,8.03E+06
31905,11.156,30.067,-63.956,1.01E+07
31906,8.2539,27.107,-63.645,2.52E+07
31907,11.523,28.005,-63.739,1.61E+07
31908,7.9346,28.888,-63.832,1.09E+07
31909,10.66,27.775,-61.895,1.94E+07
31910,8.3416,28.601,-62.165,1.85E+07
31911,10.213,29.441,-62.412,1.42E+07
31912,-10.707,26.237,-63.553,2.58E+07
31913,-8.8075,30.901,-64.044,8.19E+06
31914,-11.156,30.067,-63.956,9.79E+06
31915,-8.2539,27.107,-63.645,2.52E+07
31916,-11.523,28.005,-63.739,1.47E+07
31917,-7.9346,28.888,-63.832,1.06E+07
31918,-9.5704,27.482,-61.804,2.53E+07
31919,-9.622,29.848,-62.595,1.25E+07
31920,-13.402,3.9068,-61.206,2.49E+08
31921,-12.984,7.5194,-61.586,2.46E+08
31922,-15.44,8.2762,-61.666,1.73E+08
31923,-15.369,3.9316,-61.209,2.08E+08
31924,-12.378,5.8494,-61.411,2.81E+08
31925,-15.942,5.2326,-59.732,1.85E+08
31926,-16.082,7.961,-59.681,1.74E+08
31927,-16.696,7.5329,-60.972,1.44E+08
31928,-14.082,6.5087,-59.191,2.14E+08
31929,13.015,5.6956,-61.394,3.42E+08
31930,12.67,11.562,-62.011,1.62E+08
31931,11.979,6.9083,-58.993,2.92E+08
31932,11.369,8.9085,-60.001,2.97E+08
31933,14.948,6.6047,-59.931,2.33E+08
31934,13.937,11.306,-60.516,1.44E+08
31935,15.884,8.8544,-59.011,1.74E+08
31936,15.527,8.735,-61.334,1.65E+08
31937,12.613,10.612,-58.918,1.76E+08
31938,14.97,9.486,-60.934,1.78E+08
31939,-0.33705,-4.3314,-60.341,3.60E+08
31940,4.202,-3.8279,-60.394,3.64E+08
31941,2.5464,-1.4073,-60.648,4.40E+08
31942,2.903,-2.912,-58.212,3.38E+08
31943,2.3477,-5.1058,-58.569,3.13E+08
31944,0.98364,-2.2156,-58.799,3.60E+08
31945,0.18035,-4.2835,-57.772,3.08E+08
31946,14.606,1.1337,-60.915,3.78E+08
31947,12.207,4.0096,-58.688,3.58E+08
31948,15.175,3.706,-59.626,3.01E+08
31949,15.754,5.8363,-61.029,2.32E+08
31950,13.476,1.8235,-59.752,3.62E+08
31951,-3.6259,-6.9788,-58.069,2.54E+08
31952,-1.4008,-7.0428,-58.383,2.62E+08
31953,0.12761,-5.426,-58.535,2.98E+08
31954,-1.2364,-2.5358,-58.765,3.45E+08
31955,-4.4435,-4.8277,-58.785,2.89E+08
31956,-3.2352,-2.8809,-59.087,3.35E+08
31957,-2.0397,-4.6036,-57.738,2.93E+08
31958,19.211,-4.9057,-60.28,1.70E+08
31959,16.529,-2.5807,-60.525,2.87E+08
31960,17.117,-5.6329,-58.236,1.82E+08
31961,17.597,-1.9735,-58.818,2.40E+08
31962,18.748,-3.2432,-59.061,1.95E+08
31963,15.582,-3.7709,-58.676,2.22E+08
31964,17.122,-4.0752,-57.177,1.93E+08
31965,11.897,21.483,-63.054,4.53E+07
31966,9.2112,24.828,-63.405,2.91E+07
31967,12.48,25.726,-63.5,2.70E+07
31968,10.969,22.774,-61.119,5.17E+07
31969,13.338,23.401,-61.936,3.13E+07
31970,11.617,25.496,-61.655,3.00E+07
31971,9.7278,24.643,-61.021,4.06E+07
31972,-12.157,21.469,-63.052,5.10E+07
31973,-9.2112,24.828,-63.405,3.06E+07
31974,-12.48,25.726,-63.5,2.79E+07
31975,-11.087,22.747,-61.136,5.90E+07
31976,-13.151,23.596,-62.109,3.51E+07
31977,-12.692,25.914,-62.082,2.68E+07
31978,-10.528,25.203,-61.565,3.57E+07
31979,-10.214,32.452,-64.207,2.90E+06
31980,-6.9921,31.274,-64.083,6.67E+06
31981,-6.0733,32.367,-62.908,5.13E+06
31982,-9.2496,35.386,-63.095,2.06E+06
31983,-6.0844,35.358,-63.154,9.44E+05
31984,-8.6795,32.233,-62.846,6.12E+06
31985,10.214,32.452,-64.207,3.02E+06
31986,6.9921,31.274,-64.083,8.79E+06
31987,9.3125,34.027,-62.321,5.51E+06
31988,6.3596,33.048,-62.656,6.43E+06
31989,6.1968,35.594,-63.274,2.10E+06
31990,8.532,35.549,-63.164,3.58E+06
31991,9.2703,31.826,-62.663,7.24E+06
31992,4.8654,-1.224,-60.667,4.30E+08
31993,6.8751,-5.2859,-58.041,2.71E+08
31994,5.222,-2.7287,-58.231,3.28E+08
31995,4.6667,-4.9225,-58.588,3.03E+08
31996,6.8131,-1.4861,-58.806,3.59E+08
31997,7.6923,-3.1478,-58.211,3.05E+08
31998,8.8925,-5.0354,-58.11,2.57E+08
31999,1.7633,2.4052,-59.544,5.03E+08
32000,3.6043,2.4365,-58.676,4.68E+08
32001,3.5664,-0.30805,-58.486,4.03E+08
32002,1.6471,0.38835,-59.072,4.25E+08
32003,5.1575,0.93453,-59.061,4.33E+08
32004,4.8253,3.1998,-59.66,4.99E+08
32005,-13.281,-0.15485,-60.78,2.61E+08
32006,-13.672,1.6997,-60.974,2.62E+08
32007,-10.68,3.6176,-61.176,3.34E+08
32008,-14.245,3.0007,-59.498,2.30E+08
32009,-11.563,1.6487,-59.144,2.81E+08
32010,-12.384,4.2768,-58.956,2.58E+08
32011,12.341,16.769,-62.558,5.54E+07
32012,11.252,11.877,-60.313,1.96E+08
32013,13.82,14.274,-60.828,5.46E+07
32014,12.506,16.286,-60.866,5.61E+07
32015,12.495,13.58,-59.23,9.95E+07
32016,14.084,16.468,-61.684,4.28E+07
32017,-12.647,16.389,-62.518,5.56E+07
32018,-11.757,11.349,-61.989,1.75E+08
32019,-14.213,12.106,-62.068,1.02E+08
32020,-12.668,12.775,-60.167,1.18E+08
32021,-12.11,15.104,-60.672,8.67E+07
32022,-14.14,13.875,-60.933,8.78E+07
32023,-13.785,16.313,-60.822,6.83E+07
32024,23.897,-5.0089,-60.269,8.91E+07
32025,19.239,-5.9066,-58.207,1.22E+08
32026,22.482,-5.5552,-58.294,9.53E+07
32027,23.186,-3.6754,-59.321,1.05E+08
32028,20.87,-3.517,-59.032,1.47E+08
32029,29.522,-5.0089,-60.269,3.39E+07
32030,32.191,-5.1154,-57.469,2.42E+07
32031,34.289,-5.5896,-58.563,1.21E+07
32032,32.753,-3.7004,-58.969,1.51E+07
32033,30.759,-4.5582,-59.096,2.48E+07
32034,32.128,-7.3417,-58.558,1.72E+07
32035,34.023,-3.6862,-58.957,1.05E+07
32036,12.929,29.556,-63.902,1.17E+07
32037,13.888,31.856,-62.381,8.03E+06
32038,11.661,33.193,-62.233,5.45E+06
32039,13.861,34.479,-62.907,3.39E+06
32040,11.619,30.992,-62.575,9.17E+06
32041,-12.929,29.556,-63.902,1.01E+07
32042,-13.141,29.743,-62.485,9.05E+06
32043,-13.877,33.051,-62.923,3.51E+06
32044,-11.598,34.552,-63.007,2.22E+06
32045,-11.028,31.399,-62.758,7.13E+06
32046,-15.248,-0.13008,-60.782,2.19E+08
32047,-14.685,-3.8021,-60.396,1.98E+08
32048,-15.976,-1.1197,-59.142,1.90E+08
32049,-15.712,-3.4692,-58.667,1.72E+08
32050,-13.695,-2.7148,-58.415,2.02E+08
32051,-13.139,-0.18105,-58.952,2.37E+08
32052,12.294,18.525,-61.101,6.22E+07
32053,11.201,20.299,-60.859,6.11E+07
32054,13.57,20.926,-61.676,4.18E+07
32055,13.872,18.706,-61.919,4.21E+07
32056,-12.112,17.695,-60.945,9.12E+07
32057,-13.787,18.904,-61.094,6.74E+07
32058,-11.579,20.257,-60.874,7.07E+07
32059,-13.643,21.107,-61.848,5.00E+07
32060,25.046,-5.3847,-58.312,5.90E+07
32061,25.75,-3.5048,-59.339,6.73E+07
32062,26.763,-7.0788,-57.986,3.98E+07
32063,27.698,-4.3877,-59.114,4.25E+07
32064,-13.324,9.6569,-61.811,2.23E+08
32065,-10.262,7.2302,-61.556,3.29E+08
32066,-11.78,10.326,-59.91,2.23E+08
32067,-9.1352,7.1602,-59.899,3.45E+08
32068,-11.966,7.8894,-59.336,2.65E+08
32069,17.037,7.77E-02,-59.033,3.04E+08
32070,15.022,-1.7196,-58.891,2.92E+08
32071,14.839,0.16033,-59.577,3.32E+08
32072,-6.4385,27.479,-63.684,2.29E+07
32073,-5.6909,26.141,-61.348,4.11E+07
32074,-8.0743,26.073,-61.656,3.43E+07
32075,6.4385,27.479,-63.684,2.39E+07
32076,9.1639,26.366,-61.747,2.67E+07
32077,6.8455,27.192,-62.017,3.07E+07
32078,5.5052,25.776,-61.931,4.43E+07
32079,7.2744,25.513,-61.112,4.13E+07
32080,-16.422,10.099,-59.906,1.62E+08
32081,-14.236,11.083,-59.99,1.54E+08
32082,-15.707,12.183,-60.755,1.20E+08
32083,-17.036,9.6704,-61.197,1.29E+08
32084,-14.422,8.6462,-59.415,1.91E+08
32085,-16.366,0.7349,-59.337,1.90E+08
32086,-16.212,3.0255,-59.5,1.93E+08
32087,-13.53,1.6735,-59.147,2.37E+08
32088,-13.508,27.681,-62.268,1.52E+07
32089,-11.343,26.971,-61.75,2.49E+07
32090,-11.395,29.337,-62.542,1.10E+07
32091,14.153,25.169,-62.122,2.30E+07
32092,12.433,27.264,-61.841,2.15E+07
32093,14.254,29.794,-62.165,1.29E+07
32094,11.985,28.93,-62.358,1.47E+07
32095,14.818,27.318,-61.985,1.55E+07
32096,-15.54,-5.2867,-58.476,1.52E+08
32097,-16.133,-6.4979,-59.232,1.34E+08
32098,-13.522,-4.5322,-58.224,1.81E+08
32099,-14.005,-6.6981,-57.509,1.53E+08
32100,-5.3716,27.922,-61.535,3.01E+07
32101,-5.2004,30.355,-62.696,9.88E+06
32102,-7.755,27.854,-61.843,1.94E+07
32103,-7.8066,30.22,-62.634,1.04E+07
32104,6.5262,28.973,-62.204,1.86E+07
32105,5.1859,27.558,-62.118,3.41E+07
32106,5.4866,31.035,-62.444,1.13E+07
32107,8.3974,29.814,-62.451,1.08E+07
32108,-8.5288,5.4903,-59.724,3.83E+08
32109,-10.538,3.5914,-59.348,3.08E+08
32110,-11.36,6.2195,-59.16,2.92E+08
32111,-37.307,-12.5,45.742,2.00E+08
32112,-34.865,-12.5,50.679,1.90E+08
32113,-39.174,-12.5,48.242,1.84E+08
32114,-37.536,-12.5,51.036,1.77E+08
32115,-33.774,-12.5,48.547,2.08E+08
32116,-35.384,-12.5,46.659,2.09E+08
32117,-34.97,-10.573,47.737,1.47E+08
32118,-39.487,-10.426,49.59,1.23E+08
32119,-37.736,-10.159,47.585,1.24E+08
32120,-36.374,-10.163,50,1.20E+08
32121,-36.214,-10.514,45.918,1.46E+08
32122,-37.682,-12.5,40.177,2.16E+08
32123,-40.103,-12.5,45.626,1.90E+08
32124,-42.015,-12.5,43.341,1.95E+08
32125,-40.269,-12.5,41.054,2.03E+08
32126,-36.054,-12.5,42.08,2.27E+08
32127,-36.313,-12.5,44.043,2.16E+08
32128,-38.745,-10.39,41.79,1.44E+08
32129,-38.665,-10.159,44.969,1.30E+08
32130,-40.316,-10.374,43.02,1.37E+08
32131,-37.143,-10.514,43.302,1.54E+08
32132,-36.616,-10.741,41.576,1.70E+08
32133,-43.781,-12.5,50.963,1.56E+08
32134,-42.144,-12.5,53.757,1.49E+08
32135,-46.968,-12.5,50.965,1.51E+08
32136,-48.621,-12.5,52.959,1.40E+08
32137,-43.635,-12.5,55.991,1.36E+08
32138,-43.609,-10.072,54.505,8.53E+07
32139,-44.095,-10.426,52.312,9.56E+07
32140,-45.899,-10.719,54.254,1.04E+08
32141,-45.835,-11.486,52.247,1.21E+08
32142,-28.605,-12.5,46.969,2.55E+08
32143,-28.012,-12.5,44.157,2.97E+08
32144,-29.75,-12.5,42.168,2.88E+08
32145,-30.89,-12.5,46.53,2.42E+08
32146,-32.241,-12.5,42.679,2.56E+08
32147,-32.5,-12.5,44.642,2.44E+08
32148,-32.087,-10.573,45.72,1.82E+08
32149,-29.772,-10.398,45.622,1.93E+08
32150,-30.921,-10.493,43.6,2.03E+08
32151,-35.177,-12.5,56.034,1.69E+08
32152,-36.024,-12.5,53.357,1.73E+08
32153,-32.58,-12.5,55.639,1.84E+08
32154,-32.261,-12.5,50.869,2.04E+08
32155,-30.738,-12.5,53.516,1.97E+08
32156,-33.458,-10.573,50.058,1.43E+08
32157,-31.944,-10.15,54.242,1.19E+08
32158,-31.601,-10.303,52.196,1.30E+08
32159,-34.862,-10.163,52.321,1.16E+08
32160,-34.501,-10.422,54.629,1.21E+08
32161,-38.214,-12.5,34.687,2.13E+08
32162,-39.715,-12.5,38.105,2.12E+08
32163,-35.842,-12.5,34.779,2.38E+08
32164,-34.292,-12.5,36.507,2.59E+08
32165,-35.5,-12.5,39.131,2.38E+08
32166,-39.779,-12.5,36.369,2.12E+08
32167,-35.638,-10.674,36.357,1.91E+08
32168,-38.191,-10.39,38.842,1.55E+08
32169,-38.025,-10.711,36.622,1.68E+08
32170,-36.062,-10.741,38.627,1.82E+08
32171,-26.006,-12.5,46.802,2.88E+08
32172,-23.764,-12.5,48.726,3.01E+08
32173,-28.884,-12.5,49.176,2.35E+08
32174,-27.361,-12.5,51.823,2.27E+08
32175,-25.062,-12.5,50.88,2.42E+08
32176,-26.262,-10.842,51.903,1.79E+08
32177,-28.224,-10.303,50.503,1.61E+08
32178,-25.465,-10.206,48.029,2.05E+08
32179,-27.766,-10.398,48.268,1.84E+08
32180,-25.231,-10.04,50.212,1.62E+08
32181,-37.848,-12.5,56.39,1.55E+08
32182,-34.404,-12.5,58.672,1.66E+08
32183,-35.693,-12.5,60.949,1.55E+08
32184,-39.34,-12.5,58.624,1.42E+08
32185,-37.913,-12.5,60.584,1.43E+08
32186,-34.446,-10.667,59.57,1.15E+08
32187,-35.911,-10.656,61.307,1.11E+08
32188,-38.111,-10.566,59.34,1.05E+08
32189,-36.325,-10.422,57.662,1.04E+08
32190,-23.172,-12.5,45.914,3.43E+08
32191,-27.151,-12.5,42.001,3.23E+08
32192,-23.482,-12.5,42.925,3.73E+08
32193,-25.207,-12.5,41.899,3.53E+08
32194,-24.872,-10.206,45.216,2.47E+08
32195,-22.622,-10.485,44.157,3.11E+08
32196,-25.595,-10.441,42.76,2.73E+08
32197,-27.173,-10.398,45.456,2.27E+08
32198,-28.323,-10.493,43.433,2.38E+08
32199,-40.332,-12.5,50.92,1.67E+08
32200,-45.156,-12.5,48.128,1.68E+08
32201,-43.882,-12.5,45.841,1.79E+08
32202,-42.284,-10.426,49.475,1.13E+08
32203,-40.532,-10.159,47.469,1.14E+08
32204,-43.32,-10.495,47.598,1.18E+08
32205,-42.184,-10.374,45.521,1.20E+08
32206,-44.024,-11.486,49.41,1.39E+08
32207,-40.186,-12.5,55.948,1.46E+08
32208,-40.16,-10.072,54.462,9.59E+07
32209,-38.958,-10.566,56.663,1.09E+08
32210,-40.646,-10.426,52.269,1.06E+08
32211,-37.533,-10.163,52.678,1.03E+08
32212,-37.172,-10.422,54.985,1.08E+08
32213,-47.068,-12.5,45.843,1.73E+08
32214,-49.997,-12.5,50.124,1.52E+08
32215,-48.731,-10.156,46.87,1.06E+08
32216,-50.323,-10.966,47.923,1.25E+08
32217,-46.507,-10.495,47.599,1.13E+08
32218,-48.495,-10.235,49.46,1.03E+08
32219,-47.21,-11.486,49.412,1.33E+08
32220,-36.928,-12.5,32.239,2.26E+08
32221,-38.186,-12.5,30.216,2.01E+08
32222,-40.865,-12.5,33.828,1.98E+08
32223,-39.393,-10.771,30.568,1.40E+08
32224,-40.932,-10.57,32.767,1.37E+08
32225,-39.111,-10.711,34.081,1.55E+08
32226,-38.112,-10.001,32.438,1.46E+08
32227,-18.97,-12.5,45.557,4.04E+08
32228,-22.227,-12.5,49.992,2.95E+08
32229,-21.24,-12.5,44.849,3.79E+08
32230,-18.324,-12.5,47.676,3.95E+08
32231,-20.14,-9.8609,48.242,2.86E+08
32232,-22.63,-10.206,47.141,2.63E+08
32233,-20.38,-10.485,46.082,3.23E+08
32234,-22.397,-10.04,49.324,2.18E+08
32235,-33.095,-12.5,60.554,1.70E+08
32236,-29.965,-12.5,56.154,1.95E+08
32237,-31.848,-10.667,59.175,1.30E+08
32238,-31.172,-10.15,56.88,1.17E+08
32239,-33.728,-10.422,57.267,1.18E+08
32240,-29.822,-11.105,58.194,1.53E+08
32241,-44.048,-12.5,41.269,1.91E+08
32242,-47.457,-10.156,44.583,1.16E+08
32243,-45.232,-10.495,45.312,1.23E+08
32244,-44.095,-10.374,43.235,1.24E+08
32245,-46.637,-10.48,42.56,1.28E+08
32246,-30.172,-12.5,37.899,3.04E+08
32247,-31.381,-12.5,40.523,2.81E+08
32248,-26.944,-12.5,39.91,3.47E+08
32249,-27.14,-10.678,38.478,2.83E+08
32250,-27.333,-10.441,40.771,2.65E+08
32251,-29.906,-10.207,39.33,2.36E+08
32252,-28.922,-10.691,37.188,2.63E+08
32253,-30.061,-10.493,41.444,2.29E+08
32254,-42.366,-12.5,37.246,1.99E+08
32255,-40.779,-10.39,39.719,1.40E+08
32256,-44.188,-11.355,38.146,1.64E+08
32257,-42.35,-10.374,40.949,1.32E+08
32258,-40.612,-10.711,37.499,1.51E+08
32259,-43.218,-9.5504,38.121,1.07E+08
32260,-44.892,-10.48,40.274,1.35E+08
32261,-51.976,-10.966,49.918,1.14E+08
32262,-52.95,-10.842,51.847,1.08E+08
32263,-51.847,-10.313,54.519,9.19E+07
32264,-50.149,-10.235,51.454,9.22E+07
32265,-48.928,-10.719,53.413,1.05E+08
32266,-48.864,-11.486,51.406,1.22E+08
32267,-33.006,-12.5,34.058,2.74E+08
32268,-35.814,-12.5,30.308,2.30E+08
32269,-37.021,-10.771,30.66,1.70E+08
32270,-34.352,-10.674,33.908,2.08E+08
32271,-36.739,-10.711,34.173,1.83E+08
32272,-33.424,-10.62,31.564,2.15E+08
32273,-34.611,-10.447,29.92,1.94E+08
32274,-35.74,-10.001,32.53,1.77E+08
32275,-35.495,-12.5,64.407,1.50E+08
32276,-36.605,-12.5,62.466,1.46E+08
32277,-33.137,-10.667,61.452,1.19E+08
32278,-34.602,-10.656,63.189,1.15E+08
32279,-29.646,-12.5,51.384,2.15E+08
32280,-32.78,-12.5,46.849,2.24E+08
32281,-32.367,-10.573,47.926,1.61E+08
32282,-30.51,-10.303,50.064,1.48E+08
32283,-30.051,-10.398,47.829,1.72E+08
32284,-32.664,-12.5,38.41,2.69E+08
32285,-32.802,-10.674,35.636,2.27E+08
32286,-31.874,-10.62,33.291,2.33E+08
32287,-31.189,-10.207,37.217,2.27E+08
32288,-30.205,-10.691,35.074,2.56E+08
32289,-33.226,-10.741,37.906,2.16E+08
32290,-40.252,-12.5,60.141,1.33E+08
32291,-41.651,-10.072,56.696,8.31E+07
32292,-42.992,-10.346,60.161,8.73E+07
32293,-40.449,-10.566,58.897,9.58E+07
32294,-43.942,-10.719,56.445,1.01E+08
32295,-43.201,-9.6299,58.247,7.14E+07
32296,-19.28,-12.5,42.568,4.53E+08
32297,-16.364,-12.5,45.395,4.85E+08
32298,-18.921,-10.68,41.323,3.97E+08
32299,-16.102,-11.387,41.774,4.27E+08
32300,-18.42,-10.485,43.8,3.79E+08
32301,-15.9,-10.847,43.585,3.96E+08
32302,-25.824,-12.5,53.089,2.23E+08
32303,-27.024,-10.842,54.111,1.60E+08
32304,-29.33,-10.15,54.757,1.30E+08
32305,-28.986,-10.303,52.711,1.40E+08
32306,-27.98,-11.105,56.071,1.66E+08
32307,-37.381,-10.787,25.852,1.43E+08
32308,-38.28,-10.771,28.637,1.47E+08
32309,-35.869,-10.447,27.898,1.74E+08
32310,-34.131,-12.5,42.998,2.36E+08
32311,-32.398,-10.207,39.841,2.01E+08
32312,-34.961,-10.514,42.257,1.75E+08
32313,-32.552,-10.493,41.955,1.95E+08
32314,-34.434,-10.741,40.53,1.93E+08
32315,-22.623,-9.7242,53.792,1.48E+08
32316,-24.725,-10.842,53.169,1.75E+08
32317,-23.695,-10.04,51.479,1.56E+08
32318,-37.716,-12.5,64.041,1.37E+08
32319,-35.713,-10.656,64.765,1.06E+08
32320,-36.683,-10.711,67.18,1.07E+08
32321,-37.824,-9.6121,65.001,7.70E+07
32322,-23.275,-12.5,40.834,3.99E+08
32323,-21.191,-10.68,40.615,3.62E+08
32324,-20.69,-10.485,43.093,3.52E+08
32325,-23.663,-10.441,41.695,3.17E+08
32326,-42.498,-10.57,34.448,1.36E+08
32327,-44.252,-11.355,36.41,1.65E+08
32328,-40.676,-10.711,35.763,1.51E+08
32329,-43.282,-9.5504,36.385,1.08E+08
32330,-22.916,-10.68,39.589,3.42E+08
32331,-25.195,-10.678,38.375,3.17E+08
32332,-25.388,-10.441,40.669,2.97E+08
32333,-17.534,-9.8609,48.08,3.01E+08
32334,-14.209,-10.61,47.674,3.45E+08
32335,-17.774,-10.485,45.919,3.75E+08
32336,-15.649,-8.9332,47.071,3.77E+08
32337,-15.254,-10.847,45.704,3.93E+08
32338,-33.976,-10.573,46.038,1.63E+08
32339,-35.22,-10.514,44.22,1.63E+08
32340,-32.811,-10.493,43.918,1.83E+08
32341,-36.823,-10.656,62.823,1.02E+08
32342,-39.023,-10.566,60.856,9.60E+07
32343,-38.934,-9.6121,63.06,7.33E+07
32344,-0.75687,52.374,85.972,2.32E+07
32345,-4.488,51.901,82.382,1.11E+07
32346,-3.2693,52.6,87.689,2.71E+07
32347,-2.3043,51.948,82.737,1.55E+07
32348,-5.0426,52.527,87.132,2.19E+07
32349,-3.3147,50.226,82.339,1.73E+07
32350,-5.4841,50.328,82.695,1.13E+07
32351,-5.3806,51.095,87.319,1.89E+07
32352,-2.509,50.214,86.455,2.07E+07
32353,-5.6374,50.307,85.433,1.74E+07
32354,-1.8444,50.134,84.321,1.97E+07
32355,-3.932,49.443,84.757,2.01E+07
32356,-0.27097,53.728,96.257,6.12E+07
32357,-2.375,53.95,97.94,6.23E+07
32358,-2.9933,53.29,92.932,5.01E+07
32359,-1.2826,53.418,93.899,5.51E+07
32360,-4.3542,53.931,97.8,5.75E+07
32361,-4.7187,53.422,93.935,4.91E+07
32362,-0.98316,52.208,97.574,5.22E+07
32363,-4.6766,51.913,95.854,4.49E+07
32364,-3.0042,51.561,93.992,4.53E+07
32365,-3.1419,51.188,97.591,4.64E+07
32366,-2.3397,51.123,95.676,4.65E+07
32367,2.6858,52.167,84.397,2.90E+07
32368,2.5103,51.506,79.375,4.37E+07
32369,4.5495,51.544,79.664,4.72E+07
32370,1.1383,51.741,81.162,3.13E+07
32371,3.688,49.81,83.954,2.79E+07
32372,5.2357,49.934,81.056,3.47E+07
32373,2.25,50.09,80.545,3.36E+07
32374,1.5982,49.927,82.746,2.86E+07
32375,3.2899,48.446,81.36,3.43E+07
32376,5.5992,50.372,83.544,2.75E+07
32377,-0.30754,52.725,88.639,3.65E+07
32378,1.4031,52.852,89.606,4.09E+07
32379,3.4774,52.804,89.241,3.86E+07
32380,0.65738,52.073,83.687,2.02E+07
32381,3.2071,50.142,86.478,2.85E+07
32382,0.45269,50.339,87.405,2.87E+07
32383,1.1173,50.259,85.271,2.63E+07
32384,2.1136,51.077,88.6,3.13E+07
32385,4.6965,51.376,87.84,2.82E+07
32386,5.1183,50.704,86.069,2.62E+07
32387,0.52069,54.048,98.69,6.54E+07
32388,1.6131,53.516,94.649,5.78E+07
32389,3.6874,53.468,94.284,5.46E+07
32390,2.4022,54.133,99.335,6.56E+07
32391,4.0832,54.065,98.819,6.28E+07
32392,4.5631,52.005,97.691,5.07E+07
32393,1.9125,52.307,98.324,5.54E+07
32394,2.6417,51.465,95.595,5.00E+07
32395,4.9574,52.739,96.127,4.91E+07
32396,0.55596,51.222,96.426,4.95E+07
32397,-3.0737,51.601,80.096,2.69E+07
32398,-3.852,51.329,78.034,4.11E+07
32399,-5.7652,51.32,77.967,3.94E+07
32400,-4.0841,49.878,79.699,2.69E+07
32401,-6.2535,49.98,80.055,2.23E+07
32402,0.29817,54.355,101.02,6.69E+07
32403,-3.5625,54.251,100.23,6.16E+07
32404,-2.1581,52.805,102.22,5.48E+07
32405,-0.1915,52.529,100.01,5.66E+07
32406,-2.3502,51.508,100.02,5.07E+07
32407,-1.1093,53.079,91.323,4.71E+07
32408,-4.5453,53.083,91.36,4.13E+07
32409,-4.5933,52.878,89.799,3.68E+07
32410,-4.9313,51.446,89.986,3.20E+07
32411,-2.0597,50.565,89.123,3.28E+07
32412,-2.8309,51.222,91.416,3.74E+07
32413,-0.39876,51.303,90.317,3.63E+07
32414,3.8932,51.215,77.167,5.89E+07
32415,0.48197,51.412,78.665,4.33E+07
32416,-0.29628,51.14,76.602,5.53E+07
32417,2.8524,49.073,76.34,5.00E+07
32418,1.5936,49.762,78.048,4.41E+07
32419,0.83167,49.239,76.29,4.67E+07
32420,2.6757,53.158,91.925,4.91E+07
32421,1.63,51.154,93.236,4.40E+07
32422,-1.1202,51.349,92.383,4.22E+07
32423,1.3119,51.43,91.284,4.12E+07
32424,-0.45571,50.911,94.067,4.33E+07
32425,5.7585,50.612,91.739,3.67E+07
32426,3.7044,51.106,92.871,4.09E+07
32427,3.3862,51.382,90.919,3.83E+07
32428,6.02,52.381,93.404,3.97E+07
32429,5.9691,51.682,90.159,3.42E+07
32430,3.8607,54.372,101.15,6.47E+07
32431,2.6465,52.852,102.94,5.62E+07
32432,-0.27657,52.89,102.87,5.52E+07
32433,1.69,52.613,100.65,5.71E+07
32434,6.0216,52.244,99.503,5.01E+07
32435,4.3275,52.784,102.42,5.36E+07
32436,6.8024,52.675,101.67,5.03E+07
32437,3.371,52.546,100.14,5.43E+07
32438,7.0065,53.577,103.15,4.79E+07
32439,6.4158,52.978,97.939,4.80E+07
32440,4.799,51.634,101.09,5.07E+07
32441,7.6665,48.606,75.529,6.62E+07
32442,6.6185,49.644,78.847,4.59E+07
32443,4.8916,49.111,76.629,5.14E+07
32444,3.6328,49.799,78.337,4.57E+07
32445,-6.6291,52.034,100.27,4.20E+07
32446,-4.1372,52.787,102.08,4.98E+07
32447,-5.8641,52.215,98.146,4.40E+07
32448,-7.1117,53.417,101.97,4.33E+07
32449,-4.3294,51.49,99.884,4.57E+07
32450,-1.6683,51.376,78.388,4.06E+07
32451,-1.9005,49.925,80.054,2.76E+07
32452,0.22158,49.997,79.835,3.11E+07
32453,-0.43017,49.833,82.035,2.41E+07
32454,-6.3186,53.01,90.802,3.58E+07
32455,-6.6566,51.578,90.989,3.10E+07
32456,-7.2644,51.572,93.024,3.20E+07
32457,-6.2286,51.706,94.282,3.60E+07
32458,-4.5562,51.354,92.42,3.63E+07
32459,-4.3599,51.095,76.259,5.19E+07
32460,-2.6787,49.653,77.991,3.89E+07
32461,-3.2878,49.427,75.792,4.49E+07
32462,-0.55667,49.725,77.772,4.13E+07
32463,-1.3186,49.203,76.014,4.49E+07
32464,-7.1812,49.317,75.363,4.38E+07
32465,-4.592,49.645,77.924,3.64E+07
32466,-6.7614,49.746,78.28,3.25E+07
32467,-5.2011,49.418,75.725,4.31E+07
32468,-7.8743,50.088,77.083,3.33E+07
32469,-6.7046,51.372,89.429,2.68E+07
32470,0.10204,16.338,45.372,4.04E+08
32471,3.8089,20.638,46.13,3.38E+08
32472,1.1975,20.332,46.076,3.64E+08
32473,4.4988,17.963,45.659,3.42E+08
32474,2.4383,15.768,45.272,4.04E+08
32475,-0.41646,18.66,45.782,3.81E+08
32476,2.4898,19.602,48.366,3.50E+08
32477,1.1808,16.299,47.385,3.88E+08
32478,3,17.925,47.603,3.58E+08
32479,0.52003,18.312,48.098,3.69E+08
32480,-1.8835,31.744,48.089,1.09E+08
32481,3.4148,31.706,48.082,6.15E+07
32482,0.21951,33.279,48.359,4.19E+07
32483,3.4365,29.47,47.688,1.18E+08
32484,-1.7567,29.679,47.725,1.50E+08
32485,2.7222,33.764,48.445,2.80E+07
32486,0.89925,28.761,47.563,1.53E+08
32487,-0.84256,30.333,49.881,1.39E+08
32488,1.9022,29.495,49.993,1.40E+08
32489,1.9857,31.617,49.543,8.11E+07
32490,0.60212,13.823,44.929,4.16E+08
32491,-2.2526,16.715,45.439,3.97E+08
32492,-3.7407,15.024,45.141,3.73E+08
32493,-3.5714,13.176,44.815,3.85E+08
32494,-7.01E-02,11.912,46.616,4.15E+08
32495,-0.65538,14.354,47.042,4.00E+08
32496,-2.6311,11.975,46.437,4.07E+08
32497,-2.8207,14.442,47.077,3.77E+08
32498,-1.9761,22.971,46.542,3.22E+08
32499,-4.3909,26.093,47.092,2.70E+08
32500,-3.5901,21.3,46.247,3.49E+08
32501,-1.7349,25.175,46.93,2.66E+08
32502,-5.3909,21.611,46.302,3.33E+08
32503,-2.7134,23.586,48.768,3.04E+08
32504,-6.3716,23.749,48.599,3.52E+08
32505,-5.0488,21.974,48.427,3.28E+08
32506,-4.7202,24.601,48.873,3.13E+08
32507,3.0682,22.687,46.492,3.07E+08
32508,6.3696,20.318,46.074,3.02E+08
32509,5.8467,25.6,47.005,2.37E+08
32510,3.3094,24.891,46.88,2.51E+08
32511,6.6149,21.832,48.648,3.01E+08
32512,6.8181,24.153,49.055,3.15E+08
32513,4.3605,21.957,48.781,3.04E+08
32514,4.92,23.657,48.462,2.85E+08
32515,4.8707,20.28,48.018,3.13E+08
32516,7.4655,15.147,45.162,2.91E+08
32517,5.4049,12.952,44.775,3.49E+08
32518,6.9139,13.203,47.039,2.91E+08
32519,7.1155,10.772,46.463,2.98E+08
32520,-2.5233,34.288,48.537,1.16E+08
32521,-4.4996,30.689,47.903,1.85E+08
32522,-5.2264,34.982,48.66,1.81E+08
32523,-6.3508,30.621,49.559,2.73E+08
32524,-7.2798,32.727,50.807,2.97E+08
32525,-4.0463,33.631,50.671,1.64E+08
32526,-3.5854,31.342,50.059,1.67E+08
32527,5.9919,30.441,47.859,1.39E+08
32528,5.2777,34.735,48.616,1.10E+08
32529,7.1342,34.696,48.609,1.56E+08
32530,7.4422,32.381,49.547,2.06E+08
32531,4.5411,32.588,49.715,1.02E+08
32532,6.1977,34.014,50.388,1.40E+08
32533,2.0824,36.308,48.894,7.76E+07
32534,-3.1234,36.517,48.93,1.37E+08
32535,-1.9433,35.166,50.942,1.12E+08
32536,0.46642,36.555,50.95,6.76E+07
32537,-2.2105,37.302,51.023,1.05E+08
32538,-1.4824,32.877,50.329,1.04E+08
32539,1.3458,34.161,49.992,4.47E+07
32540,-1.1572,20.709,46.143,3.56E+08
32541,0.69796,24.584,46.826,2.79E+08
32542,-0.28049,22.994,48.664,3.13E+08
32543,1.7491,21.65,48.727,3.21E+08
32544,2.3085,23.35,48.408,2.94E+08
32545,-0.22068,20.36,48.46,3.43E+08
32546,4.9989,15.447,45.215,3.54E+08
32547,6.508,15.699,47.479,3.02E+08
32548,7.3047,19.156,48.176,3.03E+08
32549,7.4031,17.247,48.918,2.89E+08
32550,5.5606,17.605,47.547,3.16E+08
32551,3.4764,27.497,47.34,1.84E+08
32552,6.985,26.759,49.515,2.69E+08
32553,7.4638,30.146,49.152,2.25E+08
32554,4.4793,28.231,49.77,1.90E+08
32555,5.0869,26.263,48.921,2.25E+08
32556,6.6387,28.776,50.43,2.44E+08
32557,4.5628,30.353,49.32,1.38E+08
32558,2.2661,11.342,46.516,4.15E+08
32559,4.4474,13.504,47.092,3.57E+08
32560,1.6809,13.784,46.942,4.00E+08
32561,4.649,11.073,46.516,3.66E+08
32562,3.5001,15.41,47.16,3.71E+08
32563,-1.7168,27.706,47.377,2.04E+08
32564,-2.6953,26.116,49.214,2.43E+08
32565,-6.224,28.556,49.195,2.95E+08
32566,-3.4586,29.277,49.694,2.04E+08
32567,-4.7021,27.131,49.319,2.63E+08
32568,-4.2592,17.347,45.55,3.57E+08
32569,-4.572,19.348,45.903,3.52E+08
32570,-5.4032,18.187,47.022,3.14E+08
32571,-1.8944,21.323,48.369,3.34E+08
32572,-4.2298,19.711,48.028,3.47E+08
32573,-1.1739,16.676,47.452,3.78E+08
32574,-1.8346,18.689,48.165,3.62E+08
32575,-3.3392,16.764,47.486,3.58E+08
32576,6.4416,36.754,48.972,1.48E+08
32577,2.9692,37.041,51.035,7.88E+07
32578,5.3554,37.886,50.932,1.11E+08
32579,3.8486,34.647,50.078,8.16E+07
32580,5.5051,36.072,50.751,1.25E+08
32581,-7.8799,34.955,51.2,2.97E+08
32582,-4.6464,35.859,51.064,1.70E+08
32583,-7.3075,37.455,50.862,2.16E+08
32584,-4.9136,37.996,51.145,1.62E+08
32585,-5.5781,13.808,44.926,3.41E+08
32586,-6.0601,17.657,45.605,3.36E+08
32587,-6.9176,14.024,46.893,2.69E+08
32588,-6.8913,16.496,46.724,3.00E+08
32589,-4.8274,15.073,47.188,3.36E+08
32590,-3.93E-02,25.198,49.052,2.56E+08
32591,-0.80266,28.359,49.533,1.95E+08
32592,1.9421,27.522,49.645,2.05E+08
32593,2.5497,25.554,48.796,2.39E+08
32594,-6.831,9.8452,45.431,3.03E+08
32595,-6.7483,12.176,46.567,2.74E+08
32596,-4.4684,10.759,46.222,3.74E+08
32597,-4.6581,13.225,46.862,3.45E+08
32598,-7.2041,18.497,47.077,3.11E+08
32599,-6.0307,20.022,48.082,3.37E+08
32600,8.6061,34.4,49.903,2.37E+08
32601,7.2119,37.847,50.925,1.51E+08
32602,7.3616,36.033,50.744,1.72E+08
32603,9.434,36.335,50.536,2.16E+08
32604,-14.552,-18.433,-44.575,7.17E+07
32605,-16.615,-18.61,-43.291,3.70E+07
32606,-17.088,-18.973,-44.797,4.19E+07
32607,-16.03,-17.882,-44.961,6.49E+07
32608,-18.836,-20,-39.918,4.75E+07
32609,-17.273,-18.869,-38.382,8.51E+07
32610,-18.603,-19.038,-39.782,5.90E+07
32611,-19.356,-19.038,-40.42,5.08E+07
32612,-42.231,-12.5,-39.255,8.31E+06
32613,-46.847,-12.5,-42.394,1.10E+07
32614,-44.91,-12.5,-38.825,8.00E+06
32615,-44.307,-12.5,-43.089,1.08E+07
32616,-41.85,-12.5,-41.88,1.07E+07
32617,-46.329,-12.5,-40.251,1.05E+07
32618,-43.802,-10.529,-39.935,7.57E+06
32619,-43.547,-10.642,-42.468,8.65E+06
32620,-45.467,-10.605,-41.867,8.55E+06
32621,-41.037,-12.5,-34.999,1.66E+07
32622,-36.381,-12.5,-39.69,2.84E+07
32623,-36.691,-12.5,-36.66,4.43E+07
32624,-38.29,-12.5,-34.547,3.71E+07
32625,-42.411,-12.5,-37.053,1.03E+07
32626,-39.351,-12.5,-40.108,1.10E+07
32627,-41.302,-10.529,-38.163,1.40E+07
32628,-38.167,-10.173,-36.424,3.81E+07
32629,-38.488,-10.155,-39.094,2.36E+07
32630,-40.224,-10.632,-35.42,2.51E+07
32631,-36.995,-10.935,-38.281,3.74E+07
32632,-41.055,-12.5,-30.16,3.66E+07
32633,-44.185,-12.5,-30.42,1.36E+07
32634,-39.596,-12.5,-32.063,4.02E+07
32635,-44.583,-12.5,-32.716,1.01E+07
32636,-43.717,-12.5,-34.569,9.22E+06
32637,-41.53,-10.632,-32.936,2.73E+07
32638,-42.348,-10.642,-30.378,3.00E+07
32639,-44.716,-10.716,-33.824,1.17E+07
32640,-43.936,-10.592,-32.058,1.69E+07
32641,-47.973,-12.5,-46.138,1.09E+07
32642,-51.584,-12.5,-44.566,1.08E+07
32643,-46.423,-12.5,-44.455,1.17E+07
32644,-50.235,-12.5,-46.005,1.05E+07
32645,-48.446,-12.5,-41.618,1.11E+07
32646,-50.234,-12.5,-41.933,1.14E+07
32647,-49.398,-10.655,-42.3,9.25E+06
32648,-49.057,-10.588,-45.301,9.45E+06
32649,-47.583,-10.605,-43.233,8.90E+06
32650,-46.96,-12.5,-52.171,8.92E+06
32651,-45.46,-12.5,-50.543,1.02E+07
32652,-45.815,-12.5,-54.262,8.78E+06
32653,-41.47,-12.5,-51.539,1.19E+07
32654,-43.358,-12.5,-50.655,1.13E+07
32655,-44.651,-10.129,-54.555,7.32E+06
32656,-42.19,-10.563,-52.577,8.63E+06
32657,-44.374,-10.34,-51.096,8.62E+06
32658,-46.68,-10.566,-52.407,8.07E+06
32659,-37.616,-12.5,-46.755,1.31E+07
32660,-39.516,-12.5,-48.676,1.20E+07
32661,-41.404,-12.5,-47.793,1.26E+07
32662,-41.956,-12.5,-45.998,1.24E+07
32663,-39.5,-12.5,-44.789,1.04E+07
32664,-38.851,-10.471,-45.927,8.91E+06
32665,-40.173,-10.933,-47.417,9.97E+06
32666,-41.196,-10.642,-45.377,9.25E+06
32667,-50.067,-12.5,-33.595,1.02E+07
32668,-48.087,-12.5,-34.389,7.03E+06
32669,-47.221,-12.5,-36.242,8.08E+06
32670,-51.406,-12.5,-35.532,1.13E+07
32671,-48.64,-12.5,-37.668,1.02E+07
32672,-50.429,-12.5,-37.983,1.09E+07
32673,-49.592,-10.655,-38.35,8.37E+06
32674,-48.22,-10.716,-35.497,6.06E+06
32675,-50.362,-11.333,-35.026,8.79E+06
32676,-33.341,-12.5,-38.867,5.07E+07
32677,-31.249,-12.5,-39.803,7.46E+07
32678,-34.117,-12.5,-44.281,2.14E+07
32679,-30.629,-12.5,-42.068,7.88E+07
32680,-36.001,-12.5,-42.315,2.50E+07
32681,-31.813,-12.5,-43.321,4.21E+07
32682,-31.455,-10.499,-41.634,7.18E+07
32683,-33.466,-10.925,-42.693,3.77E+07
32684,-33.645,-10.935,-40.488,4.79E+07
32685,-55.09,-12.5,-42.504,9.97E+06
32686,-57.656,-12.5,-41.231,9.79E+06
32687,-54.718,-12.5,-37.42,1.21E+07
32688,-53.74,-12.5,-39.871,1.14E+07
32689,-58.084,-10.167,-39.663,8.59E+06
32690,-57.329,-11.035,-37.774,9.56E+06
32691,-55.168,-10.576,-38.665,9.55E+06
32692,-56.24,-10.324,-41.124,8.90E+06
32693,-42.897,-12.5,-28.065,3.27E+07
32694,-38.308,-12.5,-29.708,5.83E+07
32695,-41.137,-12.5,-25.853,5.11E+07
32696,-39.498,-10.796,-24.528,7.73E+07
32697,-38.496,-10.383,-28.316,7.04E+07
32698,-40.242,-10.632,-30.58,4.48E+07
32699,-41.06,-10.642,-28.023,4.95E+07
32700,-38.25,-9.7988,-26.278,7.98E+07
32701,-40.835,-10.002,-26.127,5.71E+07
32702,-31.558,-12.5,-36.772,9.64E+07
32703,-35.25,-12.5,-33.724,6.58E+07
32704,-35.126,-10.173,-35.601,6.66E+07
32705,-33.42,-10.495,-33.892,9.26E+07
32706,-32.458,-10.309,-36.052,9.58E+07
32707,-33.954,-10.935,-37.457,6.42E+07
32708,-44.267,-12.5,-26.113,2.78E+07
32709,-48.405,-12.5,-29.827,4.99E+06
32710,-46.425,-12.5,-30.621,4.96E+06
32711,-46.377,-10.232,-26.985,1.36E+07
32712,-44.19,-10.642,-28.283,2.61E+07
32713,-47.833,-11.06,-28.254,7.27E+06
32714,-45.778,-10.592,-29.963,1.24E+07
32715,-48.483,-12.5,-50.145,9.56E+06
32716,-48.839,-12.5,-53.864,7.08E+06
32717,-50.745,-12.5,-50.011,8.37E+06
32718,-52.07,-10.497,-52.124,6.25E+06
32719,-49.704,-10.566,-52.009,6.95E+06
32720,-51.816,-11.239,-50.177,7.02E+06
32721,-49.892,-11.157,-53.773,6.22E+06
32722,-44.881,-12.5,-48.628,1.17E+07
32723,-45.433,-12.5,-46.833,1.15E+07
32724,-49.245,-12.5,-48.383,1.00E+07
32725,-45.897,-10.34,-49.069,8.96E+06
32726,-48.067,-10.588,-47.679,9.10E+06
32727,-48.203,-10.566,-50.38,8.50E+06
32728,-56.772,-12.5,-44.099,8.60E+06
32729,-52.856,-12.5,-46.811,9.26E+06
32730,-52.855,-12.5,-42.739,1.08E+07
32731,-52.019,-10.655,-43.105,8.34E+06
32732,-51.678,-10.588,-46.107,8.17E+06
32733,-55.355,-10.324,-43.992,7.92E+06
32734,-53.927,-11.239,-46.976,8.26E+06
32735,-54.049,-9.767,-45.281,7.76E+06
32736,-28.847,-12.5,-39.973,1.10E+08
32737,-29.672,-10.499,-39.539,1.05E+08
32738,-27.985,-10.702,-37.609,1.57E+08
32739,-30.366,-10.309,-36.988,1.19E+08
32740,-31.862,-10.935,-38.393,8.79E+07
32741,-36.726,-10.173,-33.488,5.99E+07
32742,-37.037,-10.383,-30.219,7.32E+07
32743,-35.019,-10.495,-31.78,8.90E+07
32744,-38.783,-10.632,-32.484,4.88E+07
32745,-44.617,-10.232,-24.773,3.25E+07
32746,-44.13,-10.838,-22.798,3.59E+07
32747,-43.716,-11.827,-21.529,4.06E+07
32748,-40.868,-10.796,-22.576,7.47E+07
32749,-42.43,-10.642,-26.071,4.45E+07
32750,-42.205,-10.002,-24.176,5.34E+07
32751,-59.766,-10.167,-41.259,7.03E+06
32752,-61.451,-10.997,-42.208,6.21E+06
32753,-57.922,-10.324,-42.719,7.36E+06
32754,-59.71,-10.091,-43.976,6.57E+06
32755,-37.103,-12.5,-48.586,1.12E+07
32756,-37.087,-12.5,-44.698,1.19E+07
32757,-32.899,-12.5,-45.704,2.61E+07
32758,-35.839,-10.453,-48.193,7.80E+06
32759,-36.438,-10.471,-45.836,1.08E+07
32760,-37.76,-10.933,-47.327,1.02E+07
32761,-34.147,-10.76,-47.269,9.78E+06
32762,-34.552,-10.925,-45.077,1.79E+07
32763,-48.803,-12.5,-32.123,7.93E+06
32764,-52.122,-12.5,-33.267,1.22E+07
32765,-51.565,-11.008,-30.316,1.16E+07
32766,-50.211,-11.06,-29.756,8.24E+06
32767,-48.156,-10.592,-31.465,7.34E+06
32768,-51.078,-11.333,-32.76,9.77E+06
32769,-45.956,-12.5,-34.77,5.79E+06
32770,-46.955,-10.716,-34.025,5.40E+06
32771,-46.176,-10.592,-32.259,8.35E+06
32772,-49.098,-11.333,-33.554,6.33E+06
32773,-46.509,-12.5,-38.049,8.23E+06
32774,-43.982,-10.529,-37.733,8.30E+06
32775,-42.904,-10.632,-34.99,1.79E+07
32776,-46.089,-10.716,-35.878,5.72E+06
32777,-46.529,-10.129,-56.248,5.60E+06
32778,-47.87,-10.633,-57.792,4.71E+06
32779,-48.559,-10.566,-54.099,6.21E+06
32780,-48.747,-11.157,-55.864,5.76E+06
32781,-52.484,-12.5,-37.655,1.18E+07
32782,-56.072,-11.035,-35.558,1.10E+07
32783,-53.911,-10.576,-36.449,1.05E+07
32784,-52.417,-11.333,-34.698,1.06E+07
32785,-54.805,-11.181,-34.306,1.21E+07
32786,-40.89,-12.5,-49.624,1.24E+07
32787,-39.723,-10.563,-51.547,9.94E+06
32788,-37.739,-10.453,-50.114,9.39E+06
32789,-39.66,-10.933,-49.249,9.61E+06
32790,-43.331,-12.5,-46.945,1.18E+07
32791,-41.61,-10.563,-50.663,8.68E+06
32792,-41.547,-10.933,-48.365,9.71E+06
32793,-43.795,-10.34,-49.181,9.76E+06
32794,-41.427,-12.5,-43.941,1.06E+07
32795,-42.1,-10.933,-46.57,9.28E+06
32796,-44.347,-10.34,-47.386,9.15E+06
32797,-43.123,-10.642,-44.529,9.03E+06
32798,-46.517,-10.588,-45.996,9.66E+06
32799,-45.044,-10.605,-43.928,8.95E+06
32800,-29.411,-12.5,-43.491,7.58E+07
32801,-28.684,-11.038,-43.972,7.88E+07
32802,-27.173,-11.17,-43.088,1.40E+08
32803,-29.052,-10.499,-41.804,1.09E+08
32804,-27.365,-10.702,-39.874,1.43E+08
32805,-40.922,-10.529,-40.788,9.82E+06
32806,-38.321,-10.471,-43.87,1.14E+07
32807,-38.107,-10.155,-41.719,1.81E+07
32808,-40.667,-10.642,-43.321,9.61E+06
32809,-36.435,-10.925,-43.111,2.09E+07
32810,-36.615,-10.935,-40.905,3.02E+07
32811,-50.329,-10.588,-47.546,8.23E+06
32812,-50.465,-10.566,-50.247,7.24E+06
32813,-52.578,-11.239,-48.415,8.06E+06
32814,-49.717,-12.5,-39.791,1.13E+07
32815,-48.881,-10.655,-40.157,8.97E+06
32816,-45.401,-10.529,-39.159,7.40E+06
32817,-47.508,-10.716,-37.304,5.81E+06
32818,-47.066,-10.605,-41.091,8.48E+06
32819,-50.67,-10.655,-40.472,9.40E+06
32820,-52.934,-10.576,-38.9,9.41E+06
32821,-54.006,-10.324,-41.359,9.14E+06
32822,-51.439,-11.333,-37.149,9.20E+06
32823,-29.868,-11.038,-45.225,5.03E+07
32824,-30.236,-10.499,-43.057,6.82E+07
32825,-31.843,-10.76,-46.308,2.52E+07
32826,-32.248,-10.925,-44.117,3.81E+07
32827,-31.669,-7,66.487,5.28E+07
32828,-34.714,-6.0624,69.868,3.28E+07
32829,-34.031,-7.9064,65.89,5.92E+07
32830,-34.41,-5.1668,67.025,3.92E+07
32831,-35.001,-7.9612,68.305,5.87E+07
32832,-28.524,-7,62.994,6.17E+07
32833,-25.765,-7,59.929,6.94E+07
32834,-27.99,-5.5371,59.734,4.20E+07
32835,-29.421,-7.9167,60.66,7.33E+07
32836,-29.594,-5.1104,61.59,4.04E+07
32837,-27.395,-8.3546,59.679,9.28E+07
32838,-23.148,-6.9742,57.024,7.12E+07
32839,-21.981,-4.8934,53.28,9.91E+07
32840,-23.796,-5.6597,54.927,4.33E+07
32841,-23.822,-8.0663,54.814,9.07E+07
32842,-22.792,-7.2647,53.124,8.34E+07
32843,-30.993,-7.9167,62.407,6.78E+07
32844,-31.167,-5.1104,63.336,4.39E+07
32845,-32.459,-7.9064,64.144,6.40E+07
32846,-32.838,-5.1668,65.278,4.11E+07
32847,-40.965,-6.2904,76.811,4.66E+07
32848,-44.097,-6.25,80.29,4.02E+07
32849,-43.347,-5.8044,76.731,4.30E+07
32850,-44.219,-7.438,78.482,4.15E+07
32851,-44.22,-4.8185,78.617,4.07E+07
32852,-37.627,-5.7278,73.103,3.95E+07
32853,-39.6,-5.4833,72.288,4.19E+07
32854,-39.886,-7.5121,73.209,5.18E+07
32855,-41.45,-5.8448,74.623,4.63E+07
32856,-40.131,-4.7567,74.221,5.23E+07
32857,-35.883,-4.2292,68.66,5.35E+07
32858,-36.473,-7.0236,69.94,3.48E+07
32859,-38.159,-4.8804,70.689,4.03E+07
32860,-38.445,-6.9091,71.609,3.46E+07
32861,-46.892,-5.6174,79.157,4.09E+07
32862,-47.507,-7.3582,80.291,4.05E+07
32863,-45.453,-7.438,79.853,3.89E+07
32864,-47.82,-5.2742,82.014,3.56E+07
32865,-45.454,-4.8185,79.988,3.84E+07
32866,-46.925,-7.5682,81.81,3.43E+07
32867,-25.224,-5.6854,56.514,4.20E+07
32868,-25.251,-8.0921,56.401,9.33E+07
32869,-26.803,-5.5371,58.415,3.93E+07
32870,-27.557,-7.4,57.047,6.70E+07
32871,-26.207,-8.3546,58.361,9.78E+07
32872,-3.9929,31.674,112.61,1.43E+07
32873,-0.82497,31.705,112.85,1.46E+07
32874,-0.61247,31.324,109.95,1.91E+07
32875,-4.0065,31.279,109.61,1.82E+07
32876,-2.165,31.169,108.77,2.06E+07
32877,-1.264,33.615,110.91,1.14E+07
32878,-3.5245,33.463,110.85,1.06E+07
32879,-2.6627,32.97,108.92,1.16E+07
32880,-2.462,33.851,113.14,1.03E+07
32881,-1.569,30.505,103.73,2.75E+07
32882,3.4844,30.524,103.88,3.48E+07
32883,3.1022,30.765,105.71,2.81E+07
32884,1.1558,30.874,106.54,2.57E+07
32885,-0.39677,30.719,105.36,2.74E+07
32886,1.8574,32.4,102.08,2.74E+07
32887,-0.65843,32.185,102.81,1.88E+07
32888,1.1815,32.841,104.16,2.20E+07
32889,2.8174,31.777,113.39,1.36E+07
32890,5.6193,31.851,113.95,1.31E+07
32891,4.9763,31.286,109.67,1.93E+07
32892,3.0299,31.395,110.49,1.78E+07
32893,6.683,32.808,110.12,1.71E+07
32894,6.9407,32.572,111.67,1.22E+07
32895,5.3696,33.703,113.93,9.96E+06
32896,2.3784,33.687,111.45,1.03E+07
32897,4.398,33.43,109.92,1.42E+07
32898,4.6863,34.005,111.82,1.26E+07
32899,-5.0234,30.803,106,2.20E+07
32900,-3.1819,30.693,105.16,2.45E+07
32901,-6.1374,32.167,103.2,1.66E+07
32902,-6.2713,31.915,105.56,1.69E+07
32903,-3.4436,32.159,102.61,1.49E+07
32904,-3.6796,32.495,105.31,1.54E+07
32905,-2.4975,31.949,114.7,1.18E+07
32906,-5.679,31.523,111.46,1.52E+07
32907,-7.3523,32.614,113.27,9.74E+06
32908,-6.2023,34.292,114.89,8.04E+06
32909,-5.197,33.707,112.7,7.77E+06
32910,-4.1345,34.095,114.99,7.61E+06
32911,-7.6992,32.862,114.91,8.76E+06
32912,3.4723,32.055,115.5,1.22E+07
32913,0.88294,31.599,112.04,1.61E+07
32914,1.0856,34.774,114.93,8.45E+06
32915,3.2226,33.907,115.48,8.87E+06
32916,1.261,34.336,117.75,7.27E+06
32917,0.23142,33.89,113,8.74E+06
32918,-0.96659,34.126,115.23,8.29E+06
32919,2.5393,34.209,113.37,1.11E+07
32920,7.5956,32.85,113.78,9.28E+06
32921,6.0244,33.982,116.04,8.92E+06
32922,8.0691,33.074,115.73,9.78E+06
32923,5.3704,30.759,105.66,3.12E+07
32924,6.5975,32.381,103.5,4.02E+07
32925,4.1256,32.394,102.03,3.24E+07
32926,3.4497,32.834,104.11,2.65E+07
32927,3.0418,31.109,108.32,2.28E+07
32928,6.2153,32.623,105.33,3.21E+07
32929,6.695,32.522,107.95,2.24E+07
32930,4.41,33.143,107.75,1.94E+07
32931,3.0676,33.075,105.94,1.86E+07
32932,-0.45712,31.062,107.96,2.25E+07
32933,0.44391,33.509,110.1,1.32E+07
32934,-0.9548,32.864,108.11,1.35E+07
32935,2.4635,33.252,108.58,1.71E+07
32936,1.1212,33.184,106.77,1.61E+07
32937,-3.8512,31.017,107.62,2.15E+07
32938,-6.9405,32.24,108.02,1.47E+07
32939,-7.3659,32.219,110.27,1.32E+07
32940,-5.2106,33.312,109.7,1.15E+07
32941,-4.3488,32.819,107.77,1.25E+07
32942,-2.2713,32.374,104.24,1.46E+07
32943,-2.5074,32.709,106.93,1.50E+07
32944,-0.4314,33.029,105.59,1.73E+07
32945,11,41.181,93.827,9.36E+07
32946,11,44.018,92.379,8.27E+07
32947,11,43.852,88.57,7.12E+07
32948,11,41.411,87.463,8.85E+07
32949,11,38.988,92.318,1.04E+08
32950,11,40.187,89.224,1.03E+08
32951,11,44.602,90.251,7.37E+07
32952,8.4745,41.471,89.434,7.65E+07
32953,9.3237,43.9,89.757,6.87E+07
32954,9.1064,42.531,91.46,7.68E+07
32955,9.861,40.359,90.922,9.12E+07
32956,11,9.8248,65.837,2.66E+08
32957,11,14.272,61.395,3.52E+08
32958,11,9.622,63.209,2.32E+08
32959,11,15.193,64.216,4.06E+08
32960,11,12.279,66.712,3.36E+08
32961,11,11.507,61.273,2.61E+08
32962,11,14.07,65.897,3.72E+08
32963,8.8846,10.515,64.454,2.55E+08
32964,8.93,12.813,62.402,2.82E+08
32965,9.1173,14.654,63.641,3.25E+08
32966,8.7247,12.66,64.6,2.82E+08
32967,9.7479,10.649,62.274,2.43E+08
32968,11,-1.0749,61.595,6.17E+07
32969,11,1.6729,62.783,4.53E+07
32970,11,4.2649,60.958,7.41E+07
32971,11,-0.73132,59.175,8.39E+07
32972,11,3.9061,58.721,5.10E+07
32973,8.7674,3.3921,60.069,1.09E+08
32974,8.5845,0.7926,61.34,8.81E+07
32975,8.9263,1.3536,58.094,1.03E+08
32976,9.78,3.0041,62.229,7.84E+07
32977,8.5766,-0.54642,59.777,8.35E+07
32978,11,-1.1818,64.736,4.09E+07
32979,11,-5.7512,61.319,1.17E+08
32980,11,-3.5861,61.127,1.04E+08
32981,11,-6.2944,63.775,9.35E+07
32982,8.3574,-4.2706,63.933,6.79E+07
32983,9.7096,-5.1935,65.715,4.75E+07
32984,9.0569,-3.4393,66.176,4.33E+07
32985,8.5845,-2.0621,63.293,8.79E+07
32986,9.3793,-5.2477,62.248,7.55E+07
32987,8.5766,-3.4012,61.729,8.84E+07
32988,11,32.38,87.195,1.80E+08
32989,11,29.269,82.186,2.55E+08
32990,11,33.262,84.174,1.82E+08
32991,11,31.49,82.57,2.10E+08
32992,9.128,28.453,83.658,2.07E+08
32993,9.4333,30.99,85.93,1.77E+08
32994,9.2299,30.784,83.14,1.87E+08
32995,9.1958,29.505,85.623,1.86E+08
32996,8.62,32.384,84.26,1.61E+08
32997,11,43.064,95.741,8.72E+07
32998,11,38.034,95.679,1.09E+08
32999,11,38.522,98.64,9.79E+07
33000,11,44.115,98.041,8.42E+07
33001,8.5867,39.73,98.772,7.88E+07
33002,8.6629,42.466,97.012,7.60E+07
33003,8.3494,39.676,95.823,8.17E+07
33004,9.4533,41.799,98.956,8.11E+07
33005,8.8516,37.792,97.508,8.37E+07
33006,9.1064,41.577,94.822,8.09E+07
33007,9.861,39.405,94.284,9.53E+07
33008,11,46.952,96.593,7.34E+07
33009,11,46.485,92.165,6.70E+07
33010,8.8835,47.008,93.106,5.68E+07
33011,8.6629,45.303,95.564,6.50E+07
33012,9.3237,45.783,91.671,6.16E+07
33013,9.1064,44.414,93.374,6.99E+07
33014,9.5987,47.295,94.889,6.07E+07
33015,11,18.76,66.61,4.90E+08
33016,11,17.81,70.227,4.65E+08
33017,11,19.807,71.317,4.69E+08
33018,11,17.637,68.291,4.56E+08
33019,9.1919,17.098,69.208,3.80E+08
33020,9.0287,20.518,69.861,3.85E+08
33021,9.2792,19.819,67.774,4.20E+08
33022,11,4.3608,66.727,1.33E+08
33023,11,6.9528,64.901,1.77E+08
33024,11,9.61,68.405,2.81E+08
33025,8.8846,7.8459,66.147,2.06E+08
33026,9.6725,6.5639,68.748,1.99E+08
33027,9.78,5.692,66.173,1.66E+08
33028,11,43.127,85.568,7.15E+07
33029,11,45.507,84.244,3.91E+07
33030,11,46.319,88.357,5.50E+07
33031,8.4745,43.187,87.54,5.86E+07
33032,9.3237,45.617,87.862,5.06E+07
33033,8.9059,44.972,85.444,4.67E+07
33034,9.5158,47.238,85.946,3.67E+07
33035,11,43.066,83.137,6.08E+07
33036,11,38.298,84.087,1.22E+08
33037,11,39.463,86.221,1.03E+08
33038,8.4745,40.747,86.432,7.68E+07
33039,9.2454,38.687,85.828,9.44E+07
33040,8.9059,42.531,84.336,6.66E+07
33041,8.1914,40.379,83.775,7.63E+07
33042,9.7576,40.56,82.539,8.43E+07
33043,11,34.994,91.963,1.32E+08
33044,11,35.028,86.734,1.45E+08
33045,11,36.193,88.869,1.31E+08
33046,9.3557,32.593,90.398,1.29E+08
33047,9.4333,32.756,88.491,1.42E+08
33048,9.2454,35.417,88.475,1.22E+08
33049,8.6834,35.021,90.436,1.15E+08
33050,9.861,36.364,90.567,1.19E+08
33051,11,16.971,61.467,4.36E+08
33052,11,18.386,57.614,4.69E+08
33053,11,13.284,58.524,2.92E+08
33054,11,17.965,59.704,4.79E+08
33055,9.2752,17.186,58.456,3.65E+08
33056,8.93,14.591,59.652,3.12E+08
33057,9.1173,16.431,60.892,3.54E+08
33058,9.1781,14.72,57.366,2.99E+08
33059,11,4.158,64.099,1.00E+08
33060,8.5925,1.4669,67.813,9.50E+07
33061,9.6725,3.7691,67.945,1.27E+08
33062,9.0569,-0.69145,67.364,6.70E+07
33063,8.5845,0.68572,64.481,9.65E+07
33064,9.78,2.8972,65.37,9.93E+07
33065,11,-5.4076,58.899,1.39E+08
33066,11,-9.758,59.798,1.44E+08
33067,11,-8.116,61.546,1.29E+08
33068,8.9644,-6.6417,58.266,1.24E+08
33069,9.3793,-7.0692,60.02,1.09E+08
33070,9.0289,-9.4514,58.781,1.13E+08
33071,8.7068,-8.4823,56.987,1.25E+08
33072,11,8.6348,60.338,1.72E+08
33073,11,6.3912,60.036,1.08E+08
33074,8.7674,5.8772,61.385,1.46E+08
33075,8.8846,7.643,63.519,1.76E+08
33076,9.78,5.4892,63.545,1.35E+08
33077,9.7479,7.7772,61.338,1.59E+08
33078,11,18.886,62.526,5.34E+08
33079,11,16.769,65.969,4.57E+08
33080,9.0391,19.967,63.264,4.34E+08
33081,9.2792,18.951,65.452,4.22E+08
33082,9.1173,17.353,63.713,4.06E+08
33083,11,36.328,97.13,1.08E+08
33084,11,37.04,91.076,1.16E+08
33085,9.3557,33.44,92.606,1.18E+08
33086,9.183,33.969,95.53,9.57E+07
33087,8.3494,37.483,94.314,9.22E+07
33088,8.6834,35.869,92.644,1.02E+08
33089,8.8516,35.599,95.998,9.44E+07
33090,9.861,37.212,92.775,1.06E+08
33091,11,14.028,70.4,3.98E+08
33092,11,13.855,68.465,3.88E+08
33093,8.8846,10.3,67.022,2.69E+08
33094,9.6725,9.0183,69.623,2.67E+08
33095,9.1919,13.316,69.382,3.15E+08
33096,9.0276,11.011,70.791,2.90E+08
33097,7.7453,11.76,68.662,2.81E+08
33098,8.7247,12.446,67.168,2.97E+08
33099,9.0628,44.493,80.09,4.57E+07
33100,9.1523,46.74,81.026,3.12E+07
33101,8.9059,44.911,83.012,3.80E+07
33102,9.7576,42.94,81.215,5.85E+07
33103,9.5158,47.178,83.514,2.83E+07
33104,8.9644,-4.4765,58.075,1.13E+08
33105,9.3793,-4.9041,59.828,9.69E+07
33106,8.9263,-1.1575,57.626,1.21E+08
33107,8.5766,-3.0576,59.309,1.04E+08
33108,9.2212,35.531,101.63,7.36E+07
33109,8.5867,38.025,100.22,7.85E+07
33110,8.8516,36.086,98.959,8.40E+07
33111,11,25.82,77.903,3.47E+08
33112,11,30.146,80.122,2.54E+08
33113,9.128,27.109,81.211,2.43E+08
33114,9.2299,29.44,80.692,2.28E+08
33115,9.4084,25.804,79.421,2.72E+08
33116,8.448,28.214,79.265,2.24E+08
33117,9.6931,27.989,77.873,2.61E+08
33118,11,-10.301,62.254,1.21E+08
33119,11,-13.77,59.34,1.35E+08
33120,8.1879,-10.641,61.774,7.64E+07
33121,9.7564,-12.698,61.938,9.22E+07
33122,9.3793,-9.2545,60.727,1.00E+08
33123,9.0289,-11.637,59.488,1.05E+08
33124,9.6007,-14.015,60.582,9.48E+07
33125,8.7507,49.093,98.634,5.35E+07
33126,9.5315,49.525,100.8,5.67E+07
33127,8.6629,46.354,97.864,6.23E+07
33128,9.2331,47.404,100.09,6.19E+07
33129,9.4533,45.687,99.808,6.73E+07
33130,9.5987,48.346,97.188,5.81E+07
33131,11,20.301,58.673,5.65E+08
33132,9.2752,19.523,57.424,4.47E+08
33133,9.4108,22.281,56.572,4.78E+08
33134,11,8.276,58.101,1.35E+08
33135,8.93,11.826,59.531,2.28E+08
33136,9.278,10.241,55.335,1.72E+08
33137,9.0745,8.3972,57,1.60E+08
33138,9.1781,11.955,57.245,2.16E+08
33139,8.0141,10.116,58.31,2.00E+08
33140,9.7479,9.662,59.403,1.86E+08
33141,11,21.851,74.885,4.28E+08
33142,9.0287,22.561,73.428,3.37E+08
33143,8.9553,22.217,76.081,3.22E+08
33144,9.4084,23.699,77.585,3.21E+08
33145,8.7852,24.712,75.173,3.03E+08
33146,9.6931,25.884,76.037,3.15E+08
33147,8.1879,-8.9989,63.523,6.43E+07
33148,8.3574,-6.6354,64.16,7.26E+07
33149,9.7564,-11.056,63.686,7.72E+07
33150,9.7096,-7.5583,65.942,5.76E+07
33151,9.3793,-7.6125,62.475,8.62E+07
33152,9.477,-9.9326,64.95,6.20E+07
33153,8.3046,-8.7706,65.612,3.54E+07
33154,11,37.075,85.848,1.34E+08
33155,11,34.138,82.11,1.82E+08
33156,9.4333,33.638,85.47,1.42E+08
33157,8.9303,36.393,81.72,1.25E+08
33158,9.2454,36.299,85.454,1.24E+08
33159,8.62,35.032,83.8,1.29E+08
33160,8.1914,37.991,83.402,1.05E+08
33161,9.7576,38.172,82.165,1.13E+08
33162,11,17.989,72.611,4.49E+08
33163,11,15.818,69.585,4.33E+08
33164,9.1919,15.279,70.502,3.60E+08
33165,9.0287,18.699,71.155,3.62E+08
33166,8.5497,16.399,73.089,3.37E+08
33167,8.9204,14.486,72.751,3.57E+08
33168,8.7674,5.5184,59.148,1.24E+08
33169,8.9263,3.48,57.172,1.04E+08
33170,9.0745,6.1536,56.699,1.22E+08
33171,9.7479,7.4184,59.101,1.27E+08
33172,9.0391,20.961,61.501,4.78E+08
33173,9.2752,19.102,59.515,4.60E+08
33174,9.1173,18.347,61.951,4.50E+08
33175,9.0287,20.697,72.246,3.67E+08
33176,8.5497,18.397,74.179,3.44E+08
33177,8.9553,20.352,74.898,3.49E+08
33178,9.1919,15.106,68.566,3.49E+08
33179,9.2792,17.827,67.132,3.88E+08
33180,9.1173,16.229,65.394,3.73E+08
33181,8.7247,14.236,66.352,3.30E+08
33182,8.4745,39.523,88.193,8.99E+07
33183,9.2454,37.463,87.589,1.08E+08
33184,9.861,38.411,89.681,1.04E+08
33185,8.8835,47.592,90.978,4.79E+07
33186,9.3237,46.367,89.543,5.28E+07
33187,9.0941,48.662,89.398,3.84E+07
33188,9.5158,47.989,87.627,3.81E+07
33189,8.9303,34.621,80.116,1.55E+08
33190,9.2299,31.661,81.076,1.85E+08
33191,8.9328,32.552,78.708,1.77E+08
33192,8.62,33.26,82.196,1.58E+08
33193,9.3069,-16.36,57.564,9.94E+07
33194,9.0289,-13.464,58.323,1.05E+08
33195,9.6007,-15.842,59.416,9.50E+07
33196,-63.11,-6.25,-36.953,9.37E+06
33197,-66.207,-6.8599,-40.275,6.18E+06
33198,-64.177,-4.5927,-41.221,5.40E+06
33199,-62.495,-7.0417,-39.226,6.53E+06
33200,-62.717,-5.1003,-39.012,6.48E+06
33201,-64.18,-7.8722,-40.176,6.03E+06
33202,-56.361,-6.25,-29.716,1.95E+07
33203,-59.736,-6.25,-33.335,1.42E+07
33204,-57.365,-5.4132,-33.932,1.17E+07
33205,-58.366,-7.9099,-33.719,1.33E+07
33206,-55.721,-7.0417,-32.024,1.29E+07
33207,-55.362,-4.8462,-32.22,1.12E+07
33208,-57.498,-4.3184,-32.377,1.37E+07
33209,-56.022,-4.2401,-30.7,1.46E+07
33210,-57.098,-8.0558,-32.467,1.45E+07
33211,-53.2,-6.4014,-26.326,2.24E+07
33212,-50.252,-6.4011,-23.165,2.06E+07
33213,-50.951,-5.6848,-26.866,1.54E+07
33214,-52.036,-8.0344,-27.024,1.80E+07
33215,-49.227,-7.2588,-25.195,1.59E+07
33216,-50.682,-8.0868,-26.464,1.55E+07
33217,-50.432,-4.6284,-25.534,1.55E+07
33218,-54.034,-7.0417,-30.215,1.54E+07
33219,-52.426,-5.5334,-28.447,1.49E+07
33220,-53.51,-7.883,-28.605,1.76E+07
33221,-53.675,-4.8462,-30.411,1.37E+07
33222,-54.335,-4.2401,-28.891,1.70E+07
33223,-60.808,-7.0417,-37.417,8.51E+06
33224,-59.052,-5.4132,-35.741,8.95E+06
33225,-60.053,-7.9099,-35.528,1.05E+07
33226,-61.029,-5.1003,-37.202,8.52E+06
33227,-59.186,-4.3184,-34.186,1.09E+07
33228,-73.205,-6.25,-47.779,2.62E+06
33229,-76.141,-6.25,-50.927,1.93E+06
33230,-73.028,-5.0017,-49.715,2.20E+06
33231,-72.939,-7.1959,-49.561,2.10E+06
33232,-74.46,-6.8437,-51.473,1.93E+06
33233,-69.573,-6.8599,-43.884,3.98E+06
33234,-71.351,-5.0017,-47.917,2.47E+06
33235,-68.862,-7.3117,-46.044,2.75E+06
33236,-71.262,-7.1959,-47.762,2.36E+06
33237,-69.203,-5.1718,-46.15,2.78E+06
33238,-66.906,-7.9216,-43.947,3.80E+06
33239,-65.587,-5.2026,-42.733,4.32E+06
33240,-67.248,-5.7817,-44.053,3.86E+06
33241,-65.59,-8.482,-41.688,4.96E+06
33242,-66.627,-8.8679,-42.43,4.56E+06
33243,-47.753,-7.107,-23.615,1.55E+07
33244,-47.086,-4.8219,-22.481,2.06E+07
33245,-47.265,-7.7124,-21.64,1.75E+07
33246,-48.958,-4.4767,-23.954,1.39E+07
33247,-75.718,-6.8437,-52.822,1.55E+06
33248,-76.459,-5,-53.713,1.53E+06
33249,-77.375,-7.4548,-53.909,1.29E+06
33250,-55.734,-6.25,47.351,4.43E+07
33251,-58.394,-6.0189,51.447,3.24E+07
33252,-54.692,-7.8411,48.571,5.72E+07
33253,-54.538,-5.0142,49.255,4.14E+07
33254,-55.666,-7.7166,50.5,5.27E+07
33255,-56.282,-5.2044,51.381,3.72E+07
33256,-50.345,-6.25,39.052,4.80E+07
33257,-53.04,-6.25,43.201,4.94E+07
33258,-49.784,-4.388,40.379,5.27E+07
33259,-50.406,-7.0307,43.368,5.01E+07
33260,-50.832,-4.5985,42.689,4.68E+07
33261,-49.587,-7.3551,41.346,5.82E+07
33262,-47.65,-6.25,34.902,3.82E+07
33263,-45.296,-6.2496,31.277,2.02E+07
33264,-44.925,-4.4014,33.715,6.05E+07
33265,-44.434,-7.4446,33.107,4.75E+07
33266,-45.218,-6.4254,35.044,2.88E+07
33267,-48.437,-4.388,38.304,5.00E+07
33268,-47.535,-8.2295,37.144,8.13E+07
33269,-46.566,-6.4254,37.119,3.57E+07
33270,-48.239,-7.3551,39.271,5.73E+07
33271,-51.753,-7.0307,45.443,4.83E+07
33272,-53.345,-7.8411,46.497,6.17E+07
33273,-53.191,-5.0142,47.181,4.30E+07
33274,-52.179,-4.5985,44.764,4.92E+07
33275,-63.665,-6.0936,59.563,4.82E+07
33276,-66.116,-5.9308,63.337,4.18E+07
33277,-62.801,-6.8739,61.493,4.37E+07
33278,-64.117,-5.7252,63.024,4.31E+07
33279,-63.751,-4.7511,61.421,4.72E+07
33280,-61.082,-6.0189,55.585,3.90E+07
33281,-60.112,-7.309,57.109,4.66E+07
33282,-60.741,-5.2548,57.738,4.80E+07
33283,-61.593,-7.0303,59.633,4.81E+07
33284,-62.543,-4.9075,59.56,4.83E+07
33285,-56.978,-7.4855,52.521,4.23E+07
33286,-57.594,-4.9733,53.402,3.77E+07
33287,-58.736,-7.0779,54.992,3.40E+07
33288,-59.366,-5.0237,55.62,3.92E+07
33289,-41.888,-7.6457,29.357,4.68E+07
33290,-42.567,-4.9354,29.889,7.36E+07
33291,-43.919,-4.4011,32.165,7.11E+07
33292,-43.427,-7.4443,31.557,3.44E+07
33293,-65.359,-5.7188,64.937,4.00E+07
33294,-66.357,-7.061,66.636,3.66E+07
33295,-66.992,-4.3388,65.993,3.28E+07
33296,-42.835,-5.5,-60.057,6.03E+06
33297,-46.41,-6.4397,-62.85,2.49E+06
33298,-45.022,-6.629,-59.019,3.42E+06
33299,-46.216,-4.5875,-61.146,3.04E+06
33300,-44.576,-4.2566,-59.195,3.90E+06
33301,-46.363,-7.1332,-60.563,2.62E+06
33302,-30.004,-4.0449,-50.032,4.32E+07
33303,-29.771,-6.1314,-49.85,3.52E+07
33304,-32.879,-5.7328,-52.279,2.90E+07
33305,-34.517,-4.5351,-50.914,2.07E+07
33306,-32.619,-4.9249,-48.072,1.97E+07
33307,-33.9,-6.8133,-50.392,1.94E+07
33308,-30.174,-4.734,-48.097,3.14E+07
33309,-32.207,-7.1199,-49.468,1.80E+07
33310,-39.147,-5.5,-57.175,1.21E+07
33311,-35.869,-5.8729,-54.614,1.96E+07
33312,-38.873,-7.0627,-54.16,9.88E+06
33313,-37.506,-4.6753,-53.25,1.12E+07
33314,-39.378,-4.4381,-54.519,1.04E+07
33315,-43.178,-6.629,-57.579,5.44E+06
33316,-42.732,-4.2566,-57.755,6.16E+06
33317,-40.717,-7.0627,-55.601,6.59E+06
33318,-41.221,-4.4381,-55.959,6.79E+06
33319,-42.99,-5.2092,-56.03,4.99E+06
33320,-53.682,-6.2091,-68.531,1.05E+06
33321,-57.369,-6.25,-71.412,9.63E+05
33322,-55.728,-5.385,-67.61,6.64E+05
33323,-56.94,-7.5157,-69.422,9.02E+05
33324,-57.793,-5.625,-69.539,7.23E+05
33325,-55.424,-7.5412,-67.873,9.44E+05
33326,-49.795,-6.7737,-65.495,1.12E+06
33327,-51.515,-7.2457,-64.108,1.22E+06
33328,-53.494,-5.3441,-65.864,7.35E+05
33329,-51.431,-4.9999,-64.885,9.03E+05
33330,-53.19,-7.5003,-66.128,8.76E+05
33331,-28.451,-4.9566,-48.819,4.34E+07
33332,-28.854,-3.5593,-47.066,3.50E+07
33333,-49.862,-7.8513,-62.816,1.30E+06
33334,-47.947,-5.5272,-62.499,1.86E+06
33335,-48.094,-8.0728,-61.916,1.76E+06
33336,-49.778,-5.6055,-63.593,1.20E+06
33337,-48.507,-8.9396,-63.049,1.26E+06
33338,-28.62,-5.6458,-46.883,3.43E+07
33339,-28.679,-8.3099,-47.171,2.69E+07
33340,-30.654,-8.0316,-48.255,2.04E+07
33341,-60.458,-7.1347,-71.63,6.66E+05
33342,-58.394,-7.5157,-70.558,6.98E+05
33343,-59.246,-5.625,-70.675,5.47E+05
33344,-60.45,-5.054,-72.379,5.96E+05
33345,-37.439,-7.4356,-53.04,1.35E+07
33346,-36.072,-5.0483,-52.13,1.49E+07
33347,-35.455,-7.3264,-51.607,1.36E+07
33348,55.477,-8.3587,22.5,2.34E+07
33349,61.89,-8.0775,22.5,1.81E+07
33350,60.69,-5.0466,22.5,2.32E+07
33351,57.394,-4.2575,22.5,4.59E+07
33352,56.127,-6.2872,22.5,3.38E+07
33353,57.786,-10.2,22.5,2.37E+07
33354,60.325,-9.9109,22.5,2.34E+07
33355,57.444,-5.9897,20.191,2.64E+07
33356,58.999,-9.311,20.337,2.61E+07
33357,60.39,-6.5015,19.999,1.88E+07
33358,56.8,-8.6005,20.622,2.28E+07
33359,60.72,-8.6455,20.325,2.50E+07
33360,58.878,-5.561,21.345,2.51E+07
33361,77.542,17.153,22.5,4.52E+07
33362,80.363,16.117,22.5,3.18E+07
33363,80.259,11.159,22.5,2.05E+07
33364,82.043,13.307,22.5,2.08E+07
33365,75.767,15.505,22.5,5.02E+07
33366,76.416,13.194,22.5,4.02E+07
33367,80.283,14.567,20.259,2.39E+07
33368,76.937,14.236,20.116,3.37E+07
33369,78.435,12.788,19.99,2.41E+07
33370,77.99,16.148,20.378,3.52E+07
33371,79.881,12.331,20.598,2.07E+07
33372,78.174,11.648,21.1,2.41E+07
33373,86.104,20.228,22.5,2.29E+07
33374,83.38,20.668,22.5,3.14E+07
33375,82.231,23.972,22.5,4.16E+07
33376,84.209,25.726,22.5,3.49E+07
33377,86.711,22.394,22.5,2.65E+07
33378,84.862,21.581,20.479,2.52E+07
33379,85.402,24.774,20.557,2.99E+07
33380,82.757,22.482,20.283,3.22E+07
33381,87.172,22.334,19.949,2.14E+07
33382,87.217,23.892,21.099,2.51E+07
33383,83.874,23.964,21.043,3.28E+07
33384,52.43,-12.976,22.5,3.06E+07
33385,50.983,-6.7825,22.5,4.77E+07
33386,50.084,-10.783,22.5,2.07E+07
33387,49.831,-8.3838,22.5,3.44E+07
33388,53.124,-7.2207,22.5,3.54E+07
33389,54.782,-11.134,22.5,2.47E+07
33390,51.282,-8.0881,20.176,3.12E+07
33391,51.663,-11.017,20.196,2.76E+07
33392,53.796,-9.5341,20.622,2.38E+07
33393,53.19,-11.108,21.469,2.56E+07
33394,71.369,10.52,22.5,5.64E+07
33395,74.108,4.6428,22.5,2.09E+07
33396,69.689,8.7723,22.5,6.11E+07
33397,75.541,6.207,22.5,2.16E+07
33398,70.332,6.4532,22.5,4.58E+07
33399,71.902,4.8168,22.5,2.91E+07
33400,73.51,9.9346,22.5,4.25E+07
33401,74.152,7.5342,19.968,2.42E+07
33402,70.946,7.572,20.295,3.96E+07
33403,72.836,6.0011,20.68,2.51E+07
33404,73.001,9.4446,20.353,3.64E+07
33405,75.268,8.3884,21.1,2.56E+07
33406,84.821,17.784,22.5,2.26E+07
33407,86.501,14.974,22.5,2.22E+07
33408,89.951,18.197,22.5,2.11E+07
33409,88.152,19.51,22.5,2.16E+07
33410,88.731,15.792,22.5,2.34E+07
33411,86.302,18.697,20.479,2.05E+07
33412,88.742,17.111,20.457,2.40E+07
33413,86.777,16.188,20.728,2.23E+07
33414,64.099,-5.6989,22.5,1.21E+07
33415,67.216,-7.1154,22.5,2.55E+07
33416,63.734,-10.563,22.5,3.31E+07
33417,66.454,-8.6101,20.173,4.08E+07
33418,66.175,-5.9376,20.314,2.37E+07
33419,63.799,-7.1538,19.999,2.42E+07
33420,64.128,-9.2978,20.325,3.58E+07
33421,67.003,-10.546,21.173,4.85E+07
33422,68.242,-9.5089,21.354,5.06E+07
33423,50.041,-14.468,22.5,3.66E+07
33424,50.99,-18.496,22.5,6.69E+07
33425,54.854,-17.135,22.5,5.41E+07
33426,49.767,-16.74,22.5,5.96E+07
33427,54.739,-14.818,22.5,4.47E+07
33428,49.605,-17.712,20.488,7.26E+07
33429,54.121,-16.017,20.355,5.59E+07
33430,53.839,-18.693,20.929,6.35E+07
33431,51.619,-14.702,20.196,4.62E+07
33432,51.853,-18.938,20.951,6.92E+07
33433,49.462,-15.505,20.673,5.16E+07
33434,52.268,-17.159,19.568,6.29E+07
33435,53.147,-14.792,21.469,4.54E+07
33436,59.603,-1.8789,22.5,5.41E+07
33437,66.016,-4.0845,22.5,1.30E+07
33438,61.474,0.24459,22.5,6.14E+07
33439,63.853,-0.18624,22.5,4.15E+07
33440,65.511,-1.7517,22.5,2.33E+07
33441,61.325,-1.4341,20.058,3.93E+07
33442,64.975,-2.9067,20.314,1.59E+07
33443,62.599,-4.1229,19.999,1.72E+07
33444,63.481,-1.3553,20.23,2.79E+07
33445,61.087,-3.1824,21.345,3.08E+07
33446,79.276,19.26,22.5,4.40E+07
33447,78.127,22.564,22.5,5.67E+07
33448,74.68,18.647,22.5,6.54E+07
33449,74.935,20.091,20.528,6.19E+07
33450,76.597,21.958,20.409,5.76E+07
33451,78.653,21.074,20.283,4.58E+07
33452,76.903,19.291,20.378,4.90E+07
33453,58.613,-16.438,22.5,5.05E+07
33454,58.498,-14.121,22.5,4.12E+07
33455,61.037,-13.831,22.5,4.33E+07
33456,57.88,-15.32,20.355,5.30E+07
33457,59.779,-17.312,20.938,5.72E+07
33458,61.786,-14.814,20.395,5.55E+07
33459,59.711,-13.232,20.337,4.51E+07
33460,60.234,-15.638,19.338,5.88E+07
33461,61.584,-16.267,21.353,5.51E+07
33462,58.178,1.0337,22.5,8.69E+07
33463,55.04,-3.1195,22.5,6.44E+07
33464,53.924,-1.237,20.211,8.95E+07
33465,58.029,-0.64499,20.058,6.41E+07
33466,56.025,0.37778,20.774,9.46E+07
33467,56.357,-2.822,20.191,5.46E+07
33468,57.791,-2.3933,21.345,5.50E+07
33469,70.875,-3.836,22.5,2.62E+07
33470,68.629,-3.1682,22.5,1.39E+07
33471,68.371,-6.9958,20.173,3.99E+07
33472,70.394,-5.1701,20.334,4.01E+07
33473,68.093,-4.3232,20.314,2.40E+07
33474,71.369,-6.3391,21.485,4.86E+07
33475,70.16,-7.8945,21.354,5.02E+07
33476,68.241,11.802,22.5,8.31E+07
33477,71.413,15.274,22.5,7.46E+07
33478,72.062,12.964,22.5,6.29E+07
33479,67.588,12.898,21.032,8.61E+07
33480,70.053,15.026,20.259,7.43E+07
33481,69.498,10.601,20.295,5.98E+07
33482,71.552,12.474,20.353,5.63E+07
33483,68.93,13.011,19.39,7.10E+07
33484,74.007,-0.18789,22.5,2.61E+07
33485,76.831,3.3593,22.5,2.53E+07
33486,73.192,1.9691,22.5,1.92E+07
33487,74.159,1.1136,20.326,2.88E+07
33488,76.739,0.23907,20.971,4.35E+07
33489,74.126,3.1534,20.68,2.10E+07
33490,76.322,2.4143,20.034,3.35E+07
33491,78.086,2.2924,21.159,3.81E+07
33492,75.491,-1.2231,20.973,4.54E+07
33493,48.341,-5.8741,22.5,6.47E+07
33494,51.633,-4.711,22.5,6.48E+07
33495,47.984,-3.5336,20.317,9.72E+07
33496,50.517,-2.8285,20.211,9.04E+07
33497,49.791,-5.5783,20.176,5.92E+07
33498,83.778,15.414,22.5,2.05E+07
33499,80.948,21.529,22.5,4.07E+07
33500,83.579,19.138,20.479,2.48E+07
33501,82.018,16.674,20.259,2.32E+07
33502,81.474,20.039,20.283,3.15E+07
33503,79.725,18.255,20.378,3.41E+07
33504,84.054,16.628,20.728,2.00E+07
33505,61.606,4.9766,22.5,9.65E+07
33506,62.429,2.7263,22.5,7.49E+07
33507,59.9,1.4785,20.058,7.15E+07
33508,57.896,2.5012,20.774,1.03E+08
33509,61.009,5.7525,20.969,9.90E+07
33510,59.767,3.9224,19.304,9.17E+07
33511,62.226,4.0986,20.32,7.68E+07
33512,62.056,1.5572,20.23,5.94E+07
33513,83.673,10.456,22.5,2.56E+07
33514,80.077,6.6157,22.5,2.61E+07
33515,78.046,10.343,22.5,2.34E+07
33516,81.655,7.131,20.061,3.61E+07
33517,83.434,9.1758,20,3.39E+07
33518,81.511,9.48,20.598,2.54E+07
33519,79.804,8.7971,21.1,2.19E+07
33520,85.222,8.8805,21.522,3.65E+07
33521,83.388,7.371,21.421,3.73E+07
33522,64.862,8.425,22.5,9.30E+07
33523,65.504,6.106,22.5,7.65E+07
33524,63.986,4.5458,22.5,7.61E+07
33525,62.566,7.5719,20.969,1.01E+08
33526,63.782,5.918,20.32,7.82E+07
33527,64.222,7.3543,20.891,8.60E+07
33528,87.687,13.421,22.5,2.68E+07
33529,85.218,11.324,20,3.26E+07
33530,87.277,12.923,20.178,3.22E+07
33531,83.698,13.864,20.259,2.14E+07
33532,83.296,11.628,20.598,2.44E+07
33533,85.734,13.818,20.728,2.49E+07
33534,87.006,11.028,21.522,3.51E+07
33535,81.777,26.587,22.5,4.60E+07
33536,78.269,24.227,20.409,5.42E+07
33537,80.437,26.159,20.184,4.81E+07
33538,80.325,23.343,20.283,4.25E+07
33539,81.442,24.825,21.043,4.31E+07
33540,47.42,-14.547,22.5,4.07E+07
33541,47.442,-9.8751,22.5,2.49E+07
33542,48.892,-9.5793,20.176,2.36E+07
33543,49.273,-12.509,20.196,3.13E+07
33544,47.115,-13.312,20.673,3.65E+07
33545,46.736,-10.482,20.294,2.48E+07
33546,90.559,20.364,22.5,2.06E+07
33547,91.138,16.645,22.5,2.57E+07
33548,91.149,17.964,20.457,2.62E+07
33549,93.302,18.493,21.441,2.65E+07
33550,91.02,20.303,19.949,2.22E+07
33551,92.463,17.114,21.447,2.88E+07
33552,93.346,20.048,21.69,2.31E+07
33553,82.415,27.913,20.184,4.08E+07
33554,83.892,29.637,21.094,4.08E+07
33555,84.949,27.389,20.557,3.27E+07
33556,83.42,26.579,21.043,3.62E+07
33557,71.801,-1.39E-02,22.5,1.79E+07
33558,70.37,-1.5032,22.5,1.69E+07
33559,72.768,-0.86945,20.326,3.05E+07
33560,72.135,-3.5051,20.334,4.09E+07
33561,73.11,-4.674,21.485,4.92E+07
33562,74.1,-3.2061,20.973,4.82E+07
33563,48.37,-18.574,22.5,7.21E+07
33564,48.208,-19.546,20.488,8.44E+07
33565,47.824,-22.199,22.056,1.06E+08
33566,50.456,-20.773,20.951,8.20E+07
33567,49.348,-21.634,21.682,8.79E+07
33568,57.206,-15.292,22.5,4.43E+07
33569,56.588,-16.491,20.355,5.61E+07
33570,58.487,-18.483,20.938,6.03E+07
33571,56.305,-19.167,20.929,6.33E+07
33572,67.204,7.735,22.5,7.11E+07
33573,64.265,9.2009,20.969,9.60E+07
33574,65.908,11.15,21.032,9.08E+07
33575,67.818,8.8538,20.295,6.46E+07
33576,65.921,8.9833,20.891,8.08E+07
33577,73.554,14.689,22.5,5.92E+07
33578,71.545,16.751,20.259,7.06E+07
33579,73.16,18.443,20.528,6.73E+07
33580,74.075,15.731,20.116,5.22E+07
33581,73.044,14.199,20.353,5.26E+07
33582,75.128,17.643,20.378,5.42E+07
33583,76.234,8.6511,22.5,2.40E+07
33584,76.876,6.2507,19.968,2.24E+07
33585,79.842,5.4388,20.061,3.53E+07
33586,75.559,4.7176,20.68,2.14E+07
33587,77.992,7.1049,21.1,2.16E+07
33588,77.756,3.9784,20.034,3.35E+07
33589,79.519,3.8566,21.159,3.80E+07
33590,81.576,5.6788,21.421,3.65E+07
33591,46.984,-17.79,20.488,7.76E+07
33592,46.842,-15.584,20.673,5.60E+07
33593,44.516,-17.092,20.561,7.68E+07
33594,46.832,-5.1349,20.317,8.26E+07
33595,48.639,-7.1797,20.176,4.56E+07
33596,46.484,-8.0822,20.294,4.48E+07
33597,52.658,-3.2668,20.211,7.49E+07
33598,55.09,-4.8518,20.191,4.17E+07
33599,51.931,-6.0166,20.176,4.51E+07
33600,54.446,-7.4626,20.622,2.79E+07
33601,66.327,3.8557,22.5,5.50E+07
33602,69.416,3.7795,22.5,3.72E+07
33603,68.46,6.5347,20.295,4.89E+07
33604,68.091,4.1195,20.241,3.78E+07
33605,70.35,4.9638,20.68,3.23E+07
33606,66.124,5.228,20.32,5.69E+07
33607,66.564,6.6642,20.891,6.43E+07
33608,86.91,20.864,20.479,2.22E+07
33609,89.349,19.277,20.457,2.21E+07
33610,89.22,21.616,19.949,2.14E+07
33611,89.265,23.175,21.099,2.21E+07
33612,91.547,21.361,21.69,2.03E+07
33613,67.897,2.2193,22.5,3.71E+07
33614,66.466,0.73,22.5,3.54E+07
33615,66.572,2.5593,20.241,3.78E+07
33616,64.605,3.6678,20.32,5.66E+07
33617,64.436,1.1264,20.23,3.99E+07
33618,69.554,0.65379,22.5,2.06E+07
33619,71.953,1.2876,20.326,2.00E+07
33620,69.661,2.4831,20.241,2.29E+07
33621,71.92,3.3274,20.68,2.02E+07
33622,74.724,13.421,20.116,4.16E+07
33623,76.222,11.972,19.99,2.97E+07
33624,73.693,11.889,20.353,4.21E+07
33625,75.961,10.833,21.1,2.96E+07
33626,59.63,-12.686,22.5,3.71E+07
33627,56.473,-14.174,20.355,4.69E+07
33628,58.304,-12.086,20.337,3.90E+07
33629,56.105,-11.376,20.622,3.10E+07
33630,55.499,-12.95,21.469,3.69E+07
33631,70.522,-0.20172,20.326,1.91E+07
33632,69.889,-2.8374,20.334,2.60E+07
33633,68.23,0.99381,20.241,2.11E+07
33634,67.588,-1.9905,20.314,1.55E+07
33635,66.093,-0.43908,20.23,2.28E+07
33636,62.919,-13.379,20.395,5.19E+07
33637,60.843,-11.797,20.337,4.16E+07
33638,62.564,-11.131,20.325,4.15E+07
33639,65.439,-12.379,21.173,5.33E+07
33640,63.8,-13.901,21.398,5.16E+07
33641,62.717,-14.832,21.353,5.13E+07
33642,89.929,15.559,20.457,3.04E+07
33643,89.506,13.741,20.178,3.61E+07
33644,87.964,14.636,20.728,2.73E+07
33645,91.242,14.708,21.447,3.38E+07
33646,89.236,11.846,21.522,3.95E+07
33647,90.845,13.218,21.458,3.86E+07
33648,100.24,31.813,5.5,3.42E+07
33649,102.53,32.673,5.5,2.98E+07
33650,102.24,35.369,5.5,2.78E+07
33651,98.387,33.13,5.5,3.42E+07
33652,100.04,37.361,5.5,3.63E+07
33653,98.68,35.124,5.5,3.48E+07
33654,99.793,35.737,7.2518,3.52E+07
33655,102.74,33.879,7.2259,2.73E+07
33656,100.31,33.172,7.3749,3.13E+07
33657,102.06,35.32,7.8945,2.84E+07
33658,98.015,34.168,6.7439,3.20E+07
33659,94.546,37.779,5.5,2.72E+07
33660,92.326,37.74,5.5,1.91E+07
33661,91.039,35.98,5.5,2.04E+07
33662,94.805,33.639,5.5,3.06E+07
33663,92.798,32.984,5.5,2.96E+07
33664,95.098,35.634,5.5,3.14E+07
33665,91.455,34.242,5.5,2.50E+07
33666,91.809,36.423,7.0185,1.97E+07
33667,92.706,34.394,7.3645,2.49E+07
33668,93.823,36.522,7.4137,2.49E+07
33669,94.433,34.678,6.7439,2.86E+07
33670,93.723,40.176,5.5,1.90E+07
33671,96.412,42.356,5.5,1.99E+07
33672,97.852,40.307,5.5,3.32E+07
33673,96.495,38.07,5.5,3.14E+07
33674,95.341,41.785,7.4898,1.78E+07
33675,97.609,38.683,7.2518,3.18E+07
33676,97.228,40.755,8.5562,2.70E+07
33677,95.22,38.958,7.4137,2.48E+07
33678,102.46,30.161,5.5,3.36E+07
33679,98.117,28.132,5.5,4.21E+07
33680,101.78,28.184,5.5,4.21E+07
33681,98.314,30.619,5.5,3.53E+07
33682,100.4,27.077,5.5,4.84E+07
33683,101.63,28.131,7.0357,4.01E+07
33684,100.24,30.661,7.3749,3.24E+07
33685,97.701,29.423,7.3048,3.32E+07
33686,99.566,28.225,7.2229,3.76E+07
33687,104.46,33.717,5.5,2.27E+07
33688,104.07,29.043,5.5,3.87E+07
33689,106.69,32.214,5.5,3.25E+07
33690,103.92,28.99,7.0357,3.66E+07
33691,105.2,30.59,8.2319,2.88E+07
33692,107.14,31.177,7.2312,3.01E+07
33693,104.95,32.227,7.2259,2.54E+07
33694,102.53,31.52,7.3749,2.81E+07
33695,113.96,36.648,5.5,2.75E+07
33696,110.45,34.233,5.5,3.68E+07
33697,114.35,35.19,5.5,2.59E+07
33698,110.9,33.196,7.2312,3.35E+07
33699,110.62,35.233,7.5331,3.37E+07
33700,112.98,34.924,7.2303,3.15E+07
33701,116.55,50.684,5.5,1.21E+07
33702,119.23,47.438,5.5,1.02E+07
33703,118.05,50.984,5.5,1.06E+07
33704,118.2,47.207,7.4086,1.09E+07
33705,119.04,49.272,7.0078,1.10E+07
33706,116.99,51.343,6.9185,9.13E+06
33707,116.12,49.659,6.7466,1.08E+07
33708,99.331,50.526,5.5,1.32E+07
33709,97.352,46.636,5.5,1.00E+07
33710,97.803,50.775,5.5,9.33E+06
33711,96.886,48.297,8.1655,8.56E+06
33712,97.161,50.071,7.4019,8.46E+06
33713,99.166,50.964,6.9201,1.08E+07
33714,98.537,49.183,8.9445,1.15E+07
33715,98.174,46.867,8.0986,1.23E+07
33716,102.32,53.691,5.5,1.42E+07
33717,105.77,55.919,5.5,8.64E+06
33718,101.89,55.138,5.5,1.14E+07
33719,102.15,54.129,6.9201,1.25E+07
33720,104.75,55.074,7.5311,1.11E+07
33721,103.77,56.284,7.0038,1.03E+07
33722,113.23,53.88,5.5,7.74E+06
33723,109.59,56.041,5.5,4.08E+06
33724,113.38,55.43,5.5,6.52E+06
33725,111.59,53.786,6.6789,6.80E+06
33726,111.26,55.669,7.0101,6.58E+06
33727,113.67,54.539,6.9185,6.51E+06
33728,117.07,40.072,5.5,1.02E+07
33729,119.44,43.914,5.5,5.29E+06
33730,118.61,39.85,5.5,3.57E+06
33731,117.59,40.555,7.411,6.68E+06
33732,118.42,43.683,7.4086,5.52E+06
33733,119.43,41.617,7.2941,4.23E+06
33734,117.18,38.014,5.5,1.32E+07
33735,116.04,36.778,5.5,1.74E+07
33736,114.67,36.512,7.2303,2.15E+07
33737,116.16,38.719,7.411,1.66E+07
33738,100.42,53.723,5.5,1.39E+07
33739,99.312,52.525,5.5,1.33E+07
33740,100.67,52.714,6.9201,1.60E+07
33741,115.17,53.962,5.5,9.56E+06
33742,116.52,52.712,5.5,1.07E+07
33743,113.38,52.317,6.6789,1.01E+07
33744,115.46,53.07,6.9185,1.11E+07
33745,114.59,51.387,6.7466,1.18E+07
33746,90.216,38.377,5.5,1.32E+07
33747,90.986,38.82,7.0185,1.28E+07
33748,93.121,41.745,7.4898,9.92E+06
33749,91.904,40.673,8.8016,9.96E+06
33750,93,38.919,7.4137,1.70E+07
33751,98.322,42.447,5.5,2.56E+07
33752,95.811,43.925,7.4898,1.04E+07
33753,96.416,46.157,8.1655,7.68E+06
33754,97.704,44.727,8.0986,1.42E+07
33755,89.345,34.878,5.5,1.86E+07
33756,87.653,34.979,6.9438,1.58E+07
33757,89.699,37.06,7.0185,1.50E+07
33758,96.264,29.449,5.5,3.98E+07
33759,94.257,28.793,5.5,3.87E+07
33760,98.346,25.908,5.5,5.28E+07
33761,95.786,25.448,7.0265,4.38E+07
33762,95.651,28.253,7.3048,3.78E+07
33763,97.516,27.056,7.2229,4.21E+07
33764,94.134,26.56,7.7408,3.68E+07
33765,106.4,34.91,5.5,2.55E+07
33766,101.97,38.406,5.5,2.99E+07
33767,101.72,36.782,7.2518,2.92E+07
33768,106.57,35.91,7.5331,2.33E+07
33769,104.67,34.923,7.2259,2.05E+07
33770,103.99,36.364,7.8945,2.27E+07
33771,102.01,25.959,5.5,5.43E+07
33772,103.24,27.012,7.0357,4.61E+07
33773,94.454,31.28,5.5,3.34E+07
33774,96.755,33.93,5.5,3.48E+07
33775,98.385,31.978,7.3749,3.16E+07
33776,95.849,30.74,7.3048,3.23E+07
33777,96.09,32.974,6.7439,3.20E+07
33778,106.73,55.887,7.5311,8.18E+06
33779,109.41,56.361,7.0101,5.13E+06
33780,105.75,57.097,7.0038,7.25E+06
33781,109.08,32.369,7.2312,3.34E+07
33782,108.8,34.407,7.5331,3.25E+07
33783,106.9,33.42,7.2259,2.84E+07
33784,119.36,45.689,7.4086,7.92E+06
33785,120.37,43.623,7.2941,4.52E+06
33786,120.2,47.755,7.0078,7.37E+06
33787,91.104,31.882,5.5,2.72E+07
33788,92.355,32.034,7.3645,2.70E+07
33789,93.841,30.084,7.3048,3.13E+07
33790,91.035,30.298,7.1552,2.62E+07
33791,94.082,32.318,6.7439,3.10E+07
33792,98.405,38.161,5.5,3.71E+07
33793,97.251,41.876,7.4898,2.35E+07
33794,99.518,38.774,7.2518,3.74E+07
33795,99.138,40.847,8.5562,3.27E+07
33796,99.144,42.678,8.0986,2.70E+07
33797,100.35,24.008,7.3333,5.52E+07
33798,101.86,25.906,7.0357,5.21E+07
33799,98.066,24.393,7.0265,5.05E+07
33800,99.795,26.001,7.2229,4.87E+07
33801,117.57,36.556,5.5,9.11E+06
33802,117.69,38.496,7.411,8.86E+06
33803,119.54,39.558,7.2941,2.93E+06
33804,98.161,36.537,7.2518,3.60E+07
33805,95.773,36.813,7.4137,2.90E+07
33806,96.383,34.968,6.7439,3.27E+07
33807,88.069,33.241,6.9438,1.77E+07
33808,90.116,35.322,7.0185,1.80E+07
33809,91.012,33.292,7.3645,2.29E+07
33810,89.693,31.556,7.1552,2.20E+07
33811,89.128,32.985,8.4566,1.91E+07
33812,116.68,54.262,5.5,6.54E+06
33813,113.2,55.751,7.0101,5.38E+06
33814,115.61,54.621,6.9185,7.83E+06
33815,98.89,53.973,5.5,8.62E+06
33816,100.25,54.162,6.9201,1.17E+07
33817,101.87,56.316,7.0038,7.71E+06
33818,97.142,52.07,7.4019,7.44E+06
33819,99.146,52.963,6.9201,1.09E+07
33820,119.02,51.301,7.0078,7.48E+06
33821,116.97,53.371,6.9185,8.14E+06
33822,115.07,35.054,7.2303,1.94E+07
33823,116.55,37.261,7.411,1.25E+07
33824,100.25,31.844,21.5,2.65E+07
33825,102.53,32.673,21.5,2.39E+07
33826,102.24,35.369,21.5,3.08E+07
33827,98.477,33.225,21.5,3.02E+07
33828,100.04,37.361,21.5,3.15E+07
33829,98.711,35.103,21.5,3.10E+07
33830,101.68,34.064,19.606,2.79E+07
33831,100.33,35.674,19.947,3.37E+07
33832,99.146,33.84,19.115,2.97E+07
33833,100.28,32.693,19.997,2.74E+07
33834,94.82,37.785,21.5,2.21E+07
33835,92.6,37.746,21.5,2.38E+07
33836,95.17,33.74,21.5,2.72E+07
33837,93.072,33.082,21.5,2.83E+07
33838,91.373,35.234,21.5,3.13E+07
33839,95.405,35.618,21.5,2.80E+07
33840,93.865,36.524,19.946,2.37E+07
33841,93.167,34.635,19.715,2.54E+07
33842,93.723,40.176,21.5,1.78E+07
33843,96.412,42.356,21.5,1.29E+07
33844,97.852,40.307,21.5,2.48E+07
33845,96.527,38.048,21.5,2.40E+07
33846,94.596,40.926,18.826,1.39E+07
33847,95.516,42.632,19.918,1.18E+07
33848,97.358,40.729,19.725,1.97E+07
33849,98.141,38.619,19.947,2.66E+07
33850,94.987,38.955,19.946,1.92E+07
33851,102.47,30.192,21.5,1.95E+07
33852,98.141,28.194,21.5,2.28E+07
33853,101.8,28.215,21.5,1.99E+07
33854,98.416,30.745,21.5,2.44E+07
33855,100.41,27.108,21.5,2.29E+07
33856,101.77,28.632,19.74,2.08E+07
33857,99.29,28.564,19.479,2.23E+07
33858,100.22,30.213,19.997,2.27E+07
33859,104.46,33.717,21.5,2.22E+07
33860,104.07,29.043,21.5,1.87E+07
33861,106.69,32.214,21.5,1.87E+07
33862,104.05,29.46,19.74,1.98E+07
33863,105.68,30.736,20.033,1.76E+07
33864,105.84,32.861,19.716,1.72E+07
33865,103.9,32.412,19.606,2.05E+07
33866,102.49,31.041,19.997,2.05E+07
33867,113.96,36.648,21.5,2.18E+07
33868,110.45,34.233,21.5,2.47E+07
33869,114.35,35.19,21.5,1.92E+07
33870,111.25,34.04,19.581,2.55E+07
33871,111.82,36.279,20.081,2.70E+07
33872,113.2,34.461,19.628,2.20E+07
33873,113.86,36.453,19.538,2.12E+07
33874,116.55,50.684,21.5,1.22E+07
33875,119.23,47.438,21.5,8.50E+06
33876,118.05,50.984,21.5,1.09E+07
33877,118.68,46.74,19.678,8.30E+06
33878,119.38,48.695,19.974,8.54E+06
33879,118.04,51.04,20.182,9.64E+06
33880,117.35,49.425,19.521,1.18E+07
33881,99.331,50.526,21.5,1.52E+07
33882,97.352,46.636,21.5,1.39E+07
33883,97.803,50.775,21.5,1.38E+07
33884,96.455,46.912,19.918,1.35E+07
33885,98.755,48.426,19.757,1.48E+07
33886,97.161,50.071,19.611,1.32E+07
33887,102.32,53.691,21.5,1.16E+07
33888,105.77,55.919,21.5,8.35E+06
33889,101.89,55.138,21.5,9.67E+06
33890,102.73,54.331,19.637,1.11E+07
33891,104.75,55.677,19.771,1.00E+07
33892,113.23,53.88,21.5,1.04E+07
33893,109.59,56.041,21.5,8.54E+06
33894,113.38,55.43,21.5,1.10E+07
33895,110.63,54.768,19.754,8.99E+06
33896,110.15,56.723,20.061,9.22E+06
33897,112.94,54.519,19.696,9.70E+06
33898,111.88,56.249,19.837,1.04E+07
33899,117.07,40.072,21.5,1.08E+07
33900,119.44,43.914,21.5,3.55E+06
33901,118.61,39.85,21.5,5.02E+06
33902,117.49,41.663,19.938,8.46E+06
33903,119.25,40.707,19.582,4.02E+06
33904,118.89,43.216,19.678,4.23E+06
33905,117.18,38.014,21.5,1.24E+07
33906,116.04,36.778,21.5,1.50E+07
33907,116.06,39.827,19.938,1.52E+07
33908,115.56,38.041,19.538,1.79E+07
33909,100.42,53.723,21.5,1.24E+07
33910,99.312,52.525,21.5,1.33E+07
33911,100.26,50.176,19.757,1.44E+07
33912,98.67,51.821,19.611,1.12E+07
33913,101.25,52.916,19.637,1.37E+07
33914,115.17,53.962,21.5,1.23E+07
33915,116.52,52.712,21.5,1.26E+07
33916,114.73,53.05,19.696,1.23E+07
33917,116.51,52.768,20.182,1.14E+07
33918,115.82,51.153,19.521,1.22E+07
33919,90.275,37.625,21.5,3.11E+07
33920,90.353,39.286,19.539,2.60E+07
33921,92.376,40.887,18.826,1.77E+07
33922,93.296,42.592,19.918,1.69E+07
33923,92.767,38.915,19.946,2.01E+07
33924,98.322,42.447,21.5,1.86E+07
33925,95.985,44.772,19.918,9.34E+06
33926,97.828,42.869,19.725,1.35E+07
33927,98.285,46.286,19.757,1.08E+07
33928,96.366,29.575,21.5,2.56E+07
33929,94.268,28.917,21.5,2.50E+07
33930,98.358,25.938,21.5,2.33E+07
33931,95.303,28.316,19.523,2.36E+07
33932,95.738,25.699,19.894,2.32E+07
33933,97.24,27.395,19.479,2.31E+07
33934,94.528,27.032,20.463,2.34E+07
33935,106.4,34.91,21.5,2.16E+07
33936,101.97,38.406,21.5,2.98E+07
33937,105.55,35.557,19.716,2.16E+07
33938,103.61,35.108,19.606,2.65E+07
33939,102.26,36.718,19.947,3.22E+07
33940,102.01,25.959,21.5,2.48E+07
33941,103.38,27.483,19.74,2.35E+07
33942,94.543,31.468,21.5,2.84E+07
33943,96.876,34.004,21.5,2.91E+07
33944,95.579,30.867,19.523,2.56E+07
33945,94.638,33.021,19.715,2.58E+07
33946,97.515,29.946,19.479,2.38E+07
33947,97.311,32.741,19.115,2.76E+07
33948,98.442,31.594,19.997,2.52E+07
33949,108.79,55.46,19.754,7.43E+06
33950,106.73,56.49,19.771,8.18E+06
33951,108.31,57.415,20.061,9.20E+06
33952,107.63,31.929,20.033,2.05E+07
33953,107.78,34.054,19.716,1.97E+07
33954,109.44,33.213,19.581,2.28E+07
33955,110.01,35.453,20.081,2.39E+07
33956,119.83,45.222,19.678,5.62E+06
33957,120.53,47.177,19.974,5.24E+06
33958,90.746,32.961,21.5,3.24E+07
33959,93.48,30.209,19.523,2.52E+07
33960,91.307,30.002,19.805,2.62E+07
33961,92.54,32.363,19.715,2.67E+07
33962,90.798,31.399,20.61,2.94E+07
33963,92.705,28.925,20.463,2.54E+07
33964,98.436,38.14,21.5,3.04E+07
33965,99.267,40.82,19.725,2.79E+07
33966,100.05,38.711,19.947,3.38E+07
33967,100.64,24.146,19.841,3.03E+07
33968,101.99,26.376,19.74,2.60E+07
33969,98.005,24.613,19.894,2.57E+07
33970,99.508,26.309,19.479,2.51E+07
33971,117.57,36.556,21.5,8.34E+06
33972,117.59,39.604,19.938,9.15E+06
33973,119.35,38.648,19.582,4.97E+06
33974,117.09,37.819,19.538,1.13E+07
33975,87.994,34.519,19.362,3.39E+07
33976,89.126,36.774,19.539,3.28E+07
33977,91.54,36.403,19.946,2.76E+07
33978,90.842,34.514,19.715,2.94E+07
33979,89.1,33.55,20.61,3.37E+07
33980,98.725,36.452,19.947,3.25E+07
33981,95.571,36.787,19.946,2.50E+07
33982,94.873,34.898,19.715,2.66E+07
33983,97.545,34.618,19.115,2.84E+07
33984,116.68,54.262,21.5,1.01E+07
33985,114.89,54.601,19.696,1.06E+07
33986,116.66,54.318,20.182,9.06E+06
33987,113.82,56.33,19.837,9.30E+06
33988,98.89,53.973,21.5,8.43E+06
33989,100.83,54.364,19.637,1.00E+07
33990,97.142,52.07,19.611,9.05E+06
33991,99.726,53.165,19.637,9.69E+06
33992,118.01,53.068,20.182,9.38E+06
33993,115.28,34.591,19.628,1.36E+07
33994,115.95,36.583,19.538,1.41E+07
33995,42.137,-23.7,18.731,1.76E+08
33996,44.388,-24.534,19.726,1.50E+08
33997,43.634,-23.065,16.836,1.42E+08
33998,81.637,12.855,4.5,5.53E+07
33999,77.92,16.831,4.5,2.44E+07
34000,79.081,14.027,4.5,4.01E+07
34001,79.245,18.83,4.5,2.31E+07
34002,83.166,14.626,4.5,5.16E+07
34003,81.254,18.651,4.5,3.06E+07
34004,82.668,17.365,4.5,3.91E+07
34005,80.474,17.594,6.0797,2.79E+07
34006,80.804,14.32,6.8217,3.88E+07
34007,78.484,15.468,6.4867,2.66E+07
34008,82.717,16.104,6.3275,3.95E+07
34009,80.778,16.101,7.5106,3.04E+07
34010,74.848,4.4897,4.5,7.00E+07
34011,75.439,9.6105,4.5,4.49E+07
34012,70.699,6.6794,4.5,3.80E+07
34013,71.258,9.0331,4.5,2.83E+07
34014,76.385,6.5727,4.5,6.45E+07
34015,72.87,10.878,4.5,2.78E+07
34016,72.522,5.0466,4.5,5.58E+07
34017,74.651,5.8325,6.9309,5.25E+07
34018,72.184,6.6512,6.7853,3.71E+07
34019,72.516,9.1056,6.8761,2.70E+07
34020,75.253,8.2772,6.619,4.38E+07
34021,74.006,9.3663,5.612,3.62E+07
34022,70.142,-2.9626,4.5,9.42E+07
34023,67.464,-5.995,4.5,1.00E+08
34024,69.102,-4.9142,4.5,1.01E+08
34025,67.66,-1.4004,4.5,7.27E+07
34026,67.807,-4.7162,6.4093,8.58E+07
34027,70.338,-4.6892,6.1417,9.99E+07
34028,69.23,-1.8384,6.5423,7.43E+07
34029,65.23,-3.4472,6.2567,6.88E+07
34030,66.588,-2.1499,6.0931,6.61E+07
34031,83.526,24.211,4.5,2.17E+07
34032,85.397,25.125,4.5,2.52E+07
34033,87.139,23.245,4.5,3.17E+07
34034,86.622,21.485,4.5,3.58E+07
34035,83.483,21.923,4.5,2.72E+07
34036,84.897,20.637,4.5,3.50E+07
34037,86.441,24.533,6.1,2.64E+07
34038,85.815,21.703,6.2485,3.07E+07
34039,83.6,24.485,7.0357,1.85E+07
34040,86.019,23.132,7.8005,2.55E+07
34041,83.886,22.401,6.8404,2.31E+07
34042,80.015,10.643,4.5,5.87E+07
34043,80.961,7.6052,4.5,7.93E+07
34044,84.1,11.242,4.5,7.15E+07
34045,82.22,7.8516,6.9217,7.51E+07
34046,83.939,9.697,6.8652,7.19E+07
34047,81.738,10.936,6.8217,5.76E+07
34048,79.829,9.3097,6.619,5.77E+07
34049,85.132,8.9411,5.5255,8.39E+07
34050,83.587,7.3988,5.6303,8.73E+07
34051,90.717,17.79,4.5,5.72E+07
34052,87.314,14.536,4.5,6.52E+07
34053,88.541,18.124,4.5,5.26E+07
34054,86.817,17.275,4.5,5.15E+07
34055,89.144,14.331,6.2249,6.69E+07
34056,86.865,16.014,6.3275,5.21E+07
34057,90.745,15.02,5.6707,6.88E+07
34058,89.351,17.054,5.9157,5.60E+07
34059,76.298,14.619,4.5,2.68E+07
34060,76.462,19.422,4.5,1.74E+07
34061,73.729,15.886,4.5,1.78E+07
34062,73.434,17.544,6.4168,2.21E+07
34063,75.048,18.867,6.5739,2.02E+07
34064,77.691,18.185,6.0797,1.89E+07
34065,75.701,16.059,6.4867,1.84E+07
34066,77.815,3.6564,4.5,8.90E+07
34067,74.493,-0.3684,4.5,9.81E+07
34068,73.952,2.1303,4.5,7.99E+07
34069,76.439,-4.52E-02,6.3671,9.92E+07
34070,76.08,2.9163,6.9309,7.66E+07
34071,73.58,0.75581,6.5423,7.84E+07
34072,78.283,1.5463,5.9395,9.94E+07
34073,78.405,8.7773,4.5,6.25E+07
34074,74.89,13.082,4.5,2.64E+07
34075,79.182,12.108,6.8217,4.19E+07
34076,76.862,13.256,6.4867,2.91E+07
34077,77.273,10.482,6.619,4.20E+07
34078,76.026,11.571,5.612,3.45E+07
34079,68.539,8.3065,4.5,2.24E+07
34080,69.803,4.32,4.5,4.63E+07
34081,67.862,3.3835,4.5,4.34E+07
34082,67.285,6.9669,6.6871,1.98E+07
34083,67.237,4.5988,6.685,2.70E+07
34084,69.465,5.9246,6.7853,2.91E+07
34085,79.839,23.531,4.5,1.71E+07
34086,79.796,21.242,4.5,1.93E+07
34087,77.554,22.501,6.404,2.01E+07
34088,76.373,20.867,6.5739,2.10E+07
34089,79.016,20.185,6.0797,1.81E+07
34090,70.71,12.505,4.5,1.84E+07
34091,67.844,9.3206,6.6871,2.09E+07
34092,68.628,12.472,6.3293,2.50E+07
34093,67.208,11.021,6.2926,2.70E+07
34094,70.024,8.2783,6.7853,2.12E+07
34095,70.355,10.733,6.8761,1.87E+07
34096,80.61,5.9859,6.9217,7.91E+07
34097,77.617,4.9993,6.9309,7.09E+07
34098,78.219,7.4439,6.619,6.15E+07
34099,79.82,3.6293,5.9395,9.35E+07
34100,81.977,5.533,5.6303,9.14E+07
34101,90.776,21.615,4.5,4.18E+07
34102,90.259,19.855,4.5,4.71E+07
34103,92.713,17.831,6.7898,5.73E+07
34104,91.735,21.11,5.9261,4.56E+07
34105,94.108,19.683,6.0925,5.53E+07
34106,92.463,16.751,5.6707,6.32E+07
34107,91.069,18.785,5.9157,5.05E+07
34108,72.166,0.18849,4.5,8.31E+07
34109,71.667,-4.2618,4.5,1.08E+08
34110,70.225,-0.74804,4.5,8.01E+07
34111,72.903,-4.0368,6.1417,1.07E+08
34112,74.653,-1.987,6.3671,1.03E+08
34113,71.795,-1.186,6.5423,8.17E+07
34114,74.611,-3.1909,5.4993,1.14E+08
34115,83.763,26.554,4.5,1.90E+07
34116,81.848,23.352,4.5,2.00E+07
34117,79.607,24.61,6.404,1.90E+07
34118,79.771,26.231,5.8491,1.92E+07
34119,81.358,27.558,5.9676,1.69E+07
34120,81.966,25.914,7.0357,1.75E+07
34121,82.251,23.83,6.8404,1.79E+07
34122,68.989,-7.2941,4.5,1.15E+08
34123,66.595,-11.011,5.7798,1.17E+08
34124,67.694,-7.0961,6.4093,9.95E+07
34125,67.642,-9.591,7.0903,1.09E+08
34126,65.831,-8.4782,6.2275,1.02E+08
34127,68.321,-10.146,5.5641,1.22E+08
34128,69.123,-8.4639,5.7666,1.17E+08
34129,85.131,15.752,4.5,5.40E+07
34130,85.467,11.468,6.8652,6.80E+07
34131,87.459,12.808,6.2249,6.94E+07
34132,83.267,12.707,6.8217,5.39E+07
34133,85.179,14.491,6.3275,5.46E+07
34134,86.661,10.712,5.5255,8.00E+07
34135,70.239,14.316,6.3293,2.49E+07
34136,72.026,16.007,6.4168,2.25E+07
34137,74.293,14.523,6.4867,1.84E+07
34138,71.967,12.577,6.8761,1.83E+07
34139,73.458,12.838,5.612,2.04E+07
34140,87.376,25.588,4.5,2.72E+07
34141,83.229,28.472,5.9676,1.58E+07
34142,86.678,26.876,6.1,2.25E+07
34143,83.837,26.827,7.0357,1.78E+07
34144,85.256,28.929,5.8165,1.72E+07
34145,88.6,21.948,4.5,3.83E+07
34146,88.419,24.997,6.1,2.85E+07
34147,90.076,23.204,5.9261,3.69E+07
34148,87.794,22.166,6.2485,3.31E+07
34149,69.684,1.7507,4.5,6.23E+07
34150,73.754,3.4732,6.9309,6.20E+07
34151,71.254,1.3127,6.5423,6.37E+07
34152,69.06,2.966,6.685,4.27E+07
34153,71.287,4.2918,6.7853,4.56E+07
34154,69.331,-6.0153,6.4093,9.99E+07
34155,71.863,-5.9884,6.1417,1.14E+08
34156,70.76,-7.3831,5.7666,1.18E+08
34157,86.359,19.34,4.5,4.22E+07
34158,89.559,21.444,5.9261,4.16E+07
34159,87.276,20.406,6.2485,3.74E+07
34160,88.893,19.119,5.9157,4.62E+07
34161,69.313,0.37617,6.5423,6.07E+07
34162,67.119,2.0295,6.685,3.98E+07
34163,66.671,6.47E-02,6.0931,5.27E+07
34164,83.219,19.777,4.5,3.25E+07
34165,79.563,22.322,6.404,1.68E+07
34166,81.025,20.006,6.0797,2.28E+07
34167,82.208,21.542,6.8404,2.13E+07
34168,85.552,19.558,6.2485,3.66E+07
34169,82.44,18.72,6.0797,2.97E+07
34170,84.682,17.23,6.3275,4.17E+07
34171,83.622,20.256,6.8404,2.75E+07
34172,87.169,18.27,5.9157,4.51E+07
34173,30.546,-20,-40.677,4.49E+07
34174,31.635,-20,-36.706,5.08E+07
34175,32.023,-20,-39.375,4.39E+07
34176,28.584,-20,-40.985,4.88E+07
34177,27.428,-20,-39.254,5.46E+07
34178,27.474,-18.12,-40.405,5.89E+07
34179,28.321,-18.002,-37.281,6.62E+07
34180,30.168,-18.222,-39.457,5.44E+07
34181,30.622,-17.994,-37.428,6.18E+07
34182,33.204,-20,-41.587,3.48E+07
34183,29.764,-20,-43.198,4.01E+07
34184,33.365,-20,-43.547,2.82E+07
34185,31.349,-18.222,-41.669,4.52E+07
34186,34.071,-18.357,-42.691,2.96E+07
34187,29.773,-18.083,-44.132,4.30E+07
34188,32.085,-17.349,-43.817,3.83E+07
34189,25.628,-20,-43.495,4.82E+07
34190,21.241,-20,-43.645,5.40E+07
34191,24.473,-20,-41.764,5.35E+07
34192,24.518,-18.12,-42.915,5.70E+07
34193,25.637,-18.083,-44.429,5.07E+07
34194,23.331,-18.151,-40.915,6.30E+07
34195,23.199,-18.342,-45.072,5.53E+07
34196,22.089,-17.924,-42.872,6.22E+07
34197,34.292,-20,-37.616,4.10E+07
34198,34.646,-20,-32.925,4.88E+07
34199,32.506,-17.949,-33.744,6.10E+07
34200,35.225,-18.31,-33.732,5.41E+07
34201,35.158,-18.544,-36.058,4.57E+07
34202,32.89,-17.994,-35.67,6.01E+07
34203,34.842,-20,-42.245,2.70E+07
34204,32.826,-18.222,-40.367,4.51E+07
34205,35.548,-18.357,-41.389,2.96E+07
34206,35.547,-18.544,-38.726,3.89E+07
34207,33.279,-17.994,-38.338,5.32E+07
34208,36.235,-18.926,-39.754,2.97E+07
34209,26.646,-20,-41.775,4.95E+07
34210,26.692,-18.12,-42.925,5.32E+07
34211,29.386,-18.222,-41.977,4.85E+07
34212,27.81,-18.083,-44.44,4.68E+07
34213,33.248,-17.949,-31.722,6.52E+07
34214,35.968,-18.31,-31.709,6.02E+07
34215,34.53,-18.325,-29.661,7.21E+07
34216,36.121,-18.859,-29.2,7.01E+07
34217,16.897,-20,-44.238,5.59E+07
34218,13.067,-18.575,-44.57,6.32E+07
34219,14.889,-18.097,-43.367,6.85E+07
34220,15.006,-18.214,-46.052,6.39E+07
34221,16.454,-17.793,-45.131,6.56E+07
34222,20.985,-18.342,-45.232,5.73E+07
34223,17.019,-18.097,-42.935,6.76E+07
34224,19.875,-17.924,-43.032,6.48E+07
34225,18.584,-17.793,-44.699,6.55E+07
34226,25.536,-18.12,-41.194,5.93E+07
34227,26.383,-18.002,-38.071,6.64E+07
34228,24.349,-18.151,-39.194,6.58E+07
34229,35.709,-18.357,-43.349,2.21E+07
34230,35.609,-18.242,-45.433,1.78E+07
34231,33.723,-17.349,-44.474,3.07E+07
34232,-13,38.435,72.122,1.85E+08
34233,-11.034,39.085,72.321,1.35E+08
34234,-10.984,42.399,70.879,1.15E+08
34235,-11.52,42.078,73.108,1.18E+08
34236,-13,32.088,56.723,6.24E+08
34237,-13,29.557,62.443,6.83E+08
34238,-11.017,28.954,59.066,7.09E+08
34239,-11.513,30.726,57.506,6.66E+08
34240,-11.448,29.021,60.986,7.39E+08
34241,-11.467,33.527,53.846,4.51E+08
34242,-10.894,36.027,53.508,3.62E+08
34243,-11.513,32.992,55.127,5.23E+08
34244,-13,33.502,71.014,3.05E+08
34245,-11.034,36.171,72.348,1.89E+08
34246,-11.685,33.627,71.801,2.47E+08
34247,-13,30.388,67.831,4.96E+08
34248,-11.195,29.211,66.873,5.36E+08
34249,-11.448,28.756,64.327,6.73E+08
34250,-11.711,28.045,65.604,6.01E+08
34251,-11.987,41.097,53.302,2.65E+08
34252,-11.195,30.306,68.921,4.04E+08
34253,-11.685,31.607,70.666,3.09E+08
34254,-13,48.336,108.54,3.00E+07
34255,-11.406,51.59,108.39,2.79E+07
34256,-11.011,52.331,110.43,2.32E+07
34257,-11.229,48.964,109.19,3.01E+07
34258,-11.996,49.389,107.89,3.06E+07
34259,-13,39.537,111.48,2.01E+07
34260,-13,43.983,108.7,2.42E+07
34261,-11.43,42.724,107.94,2.10E+07
34262,-10.924,40.928,110.82,1.71E+07
34263,-11.229,44.61,109.34,2.34E+07
34264,-10.148,39.612,109.41,1.57E+07
34265,-11.02,35.374,112.8,1.23E+07
34266,-10.924,38.828,112.84,1.46E+07
34267,-9.8695,37.052,114.41,1.19E+07
34268,-11.779,36.363,115.79,1.09E+07
34269,-10.148,37.513,111.44,1.31E+07
34270,-11.366,35.622,114.43,1.17E+07
34271,-11.43,45.07,107.18,2.21E+07
34272,-11.229,46.956,108.59,2.59E+07
34273,-11.996,47.382,107.28,2.65E+07
34274,-46.029,-1,66.817,1.25E+08
34275,-48.368,-1,67.481,1.02E+08
34276,-45.806,-1,71.072,1.11E+08
34277,-44.652,-1,69.414,1.22E+08
34278,-47.811,-1,70.551,1.03E+08
34279,-48.585,-2.6839,69.322,6.95E+07
34280,-45.912,-2.6294,69.568,8.07E+07
34281,-46.814,-2.72,67.547,7.89E+07
34282,-47.389,-2.6354,70.798,7.68E+07
34283,-60.12,-1,65.339,9.15E+07
34284,-57.498,-1,61.258,1.21E+08
34285,-56.342,-1,65.062,9.05E+07
34286,-55.133,-1,61.726,1.24E+08
34287,-58.744,-2.6298,60.576,7.94E+07
34288,-56.903,-3.5227,62.356,6.29E+07
34289,-59.597,-4.4053,62.471,4.35E+07
34290,-57.866,-3.9779,64.532,5.63E+07
34291,-60.912,-3.2566,64.002,6.47E+07
34292,-60.547,-2.2825,62.399,8.29E+07
34293,-47.843,-1,65.353,1.16E+08
34294,-44.128,-1,67.286,1.36E+08
34295,-46.945,-1,62.877,1.43E+08
34296,-43.99,-2.7926,64.76,9.03E+07
34297,-45.82,-2.7435,63.242,9.13E+07
34298,-46.29,-2.72,65.419,9.24E+07
34299,-49.625,-1,69.087,9.29E+07
34300,-49.284,-1,63.54,1.20E+08
34301,-52.201,-1,66.381,8.13E+07
34302,-50.992,-1,63.044,1.16E+08
34303,-51.359,-4.0039,66.342,5.38E+07
34304,-50.399,-2.6839,67.857,6.13E+07
34305,-50.318,-2.9482,64.052,6.69E+07
34306,-48.629,-2.72,66.083,7.06E+07
34307,-46.315,-1,74.805,1.03E+08
34308,-43.904,-1,71.541,1.22E+08
34309,-47.063,-1,72.678,1.02E+08
34310,-44.445,-3.1794,73.871,6.87E+07
34311,-46.755,-2.9924,74.926,6.86E+07
34312,-45.317,-2.1935,75.757,7.84E+07
34313,-45.164,-2.6294,71.695,8.08E+07
34314,-46.641,-2.6354,72.925,7.67E+07
34315,-43.126,-2.0913,73.469,9.25E+07
34316,-62.568,-3.2566,65.961,4.85E+07
34317,-64.2,-1.8766,67.017,5.27E+07
34318,-48.32,-1,74.284,9.26E+07
34319,-48.62,-1,77.969,7.17E+07
34320,-48.013,-2.9924,76.532,6.08E+07
34321,-46.574,-2.1935,77.363,7.04E+07
34322,-47.898,-2.6354,74.531,6.79E+07
34323,-41.441,-2.818,69.878,8.68E+07
34324,-44.01,-2.6294,70.036,9.16E+07
34325,-42.613,-2.7926,67.357,8.77E+07
34326,-44.913,-2.72,68.016,8.99E+07
34327,-41.973,-2.0913,71.811,1.04E+08
34328,-49.842,-2.6839,70.927,6.27E+07
34329,-48.646,-2.6354,72.404,6.96E+07
34330,-54.166,-1,59.604,1.36E+08
34331,-57.778,-2.6298,58.455,9.01E+07
34332,-55.936,-3.5227,60.235,7.32E+07
34333,-55.043,-2.5738,58.332,9.12E+07
34334,-50.094,-1,60.568,1.43E+08
34335,-49.42,-2.9482,61.576,9.34E+07
34336,-47.261,-2.7435,61.429,9.58E+07
34337,-48.313,-2.5434,59.515,1.02E+08
34338,-47.731,-2.72,63.607,9.70E+07
34339,-53.01,-1,63.408,1.04E+08
34340,-54.781,-3.5227,64.039,4.73E+07
34341,-55.743,-3.9779,66.214,4.25E+07
34342,-53.378,-4.0039,66.706,4.70E+07
34343,-52.418,-2.6839,68.221,5.17E+07
34344,-52.337,-2.9482,64.416,5.77E+07
34345,-53.571,-3.5227,60.702,7.66E+07
34346,-51.127,-2.9482,61.08,8.91E+07
34347,-52.677,-2.5738,58.8,9.45E+07
34348,-50.02,-2.5434,59.019,9.77E+07
34349,-49.06,-2.9924,78.09,4.01E+07
34350,-49.988,-2.6492,80.948,3.39E+07
34351,-47.622,-2.1935,78.922,4.83E+07
34352,-62.551,-1,-51.677,1.88E+06
34353,-63.009,-1,-54.065,1.77E+06
34354,-66.81,-1,-51.826,1.51E+06
34355,-65.258,-1,-50.532,1.92E+06
34356,-66.116,-1,-53.778,1.40E+06
34357,-65.751,-2.8668,-51.646,1.80E+06
34358,-64.736,-2.8467,-53.459,1.95E+06
34359,-63.074,-2.5749,-50.472,2.34E+06
34360,-59.851,-1,-65.586,8.18E+05
34361,-56.014,-1,-62.618,1.06E+06
34362,-59.904,-1,-61.798,1.08E+06
34363,-56.686,-1,-60.302,5.12E+05
34364,-59.469,-3.0349,-62.449,8.18E+05
34365,-59.608,-4.1643,-64.351,7.30E+05
34366,-56.791,-2.76,-64.354,6.99E+05
34367,-58.856,-3,-66.284,4.86E+05
34368,-57.922,-2.3607,-60.953,4.78E+05
34369,-60.934,-1,-53.357,1.95E+06
34370,-63.184,-1,-49.824,1.91E+06
34371,-58.546,-1,-52.247,1.63E+06
34372,-60.182,-4.0464,-52.134,2.58E+06
34373,-62.662,-2.8467,-52.751,2.18E+06
34374,-58.931,-2.5163,-51.425,2.27E+06
34375,-61,-2.5749,-49.763,2.53E+06
34376,-61.35,-2.8133,-53.745,2.12E+06
34377,-64.499,-1,-55.458,1.45E+06
34378,-59.003,-1,-54.635,1.39E+06
34379,-61.578,-1,-57.788,1.65E+06
34380,-58.36,-1,-56.292,7.42E+05
34381,-63.119,-2.8467,-55.139,2.02E+06
34382,-59.597,-2.3607,-56.943,1.12E+06
34383,-59.388,-2.5163,-53.813,2.03E+06
34384,-61.808,-2.8133,-56.133,1.97E+06
34385,-70.484,-1,-52.658,1.76E+06
34386,-67.442,-1,-49.972,1.96E+06
34387,-68.3,-1,-53.218,1.22E+06
34388,-67.935,-2.8668,-51.086,1.65E+06
34389,-70.084,-2.3767,-50.559,1.87E+06
34390,-69.918,-2.7543,-53.107,1.46E+06
34391,-60.664,-3,-68.103,6.86E+05
34392,-61.867,-2.429,-69.808,8.63E+05
34393,-69.79,-1,-54.61,1.35E+06
34394,-73.435,-1,-55.23,1.93E+06
34395,-71.574,-2.3767,-51.952,1.96E+06
34396,-73.746,-2.375,-54.6,1.80E+06
34397,-71.408,-2.7543,-54.499,1.60E+06
34398,-66.384,-2.8668,-49.793,2.05E+06
34399,-68.533,-2.3767,-49.266,2.15E+06
34400,-66.385,-2.5468,-47.499,2.60E+06
34401,-63.707,-2.5749,-48.618,2.39E+06
34402,-67.241,-2.8668,-53.038,1.46E+06
34403,-66.226,-2.8467,-54.851,1.62E+06
34404,-69.224,-2.7543,-55.059,1.18E+06
34405,-54.657,-1,-59.155,8.83E+05
34406,-54.762,-2.76,-63.206,9.77E+05
34407,-52.7,-2.4158,-62.227,1.28E+06
34408,-55.893,-2.3607,-59.805,6.85E+05
34409,-53.552,-2.7792,-60.3,1.37E+06
34410,-55.972,-1,-55.182,9.09E+05
34411,-54.541,-1.9851,-52.68,2.19E+06
34412,-57.208,-2.3607,-55.833,1.05E+06
34413,-56.999,-2.5163,-52.702,2.06E+06
34414,-55.826,-2.7371,-54.39,1.71E+06
34415,-58.547,-1,-58.335,5.39E+05
34416,-61.33,-3.0349,-60.481,1.29E+06
34417,-59.783,-2.3607,-58.986,8.87E+05
34418,-61.994,-2.8133,-58.175,1.72E+06
34419,-56.565,-2.3607,-57.49,6.57E+05
34420,-54.224,-2.7792,-57.984,1.22E+06
34421,-55.183,-2.7371,-56.048,1.37E+06
34422,-75.208,-2.375,-55.78,1.96E+06
34423,-76.815,-2.3012,-57.119,1.47E+06
34424,-72.87,-2.7543,-55.679,1.73E+06
34425,-56.352,-11.5,63.225,1.07E+08
34426,-52.211,-11.5,64.543,9.74E+07
34427,-55.142,-11.5,61.26,1.18E+08
34428,-53.02,-11.5,61.571,1.20E+08
34429,-54.79,-8.7727,62.201,5.48E+07
34430,-55.753,-9.2279,64.377,6.41E+07
34431,-53.388,-9.2539,64.869,6.27E+07
34432,-52.928,-10.157,62.558,8.14E+07
34433,-46.029,-11.5,66.817,1.19E+08
34434,-48.368,-11.5,67.481,9.92E+07
34435,-45.806,-11.5,71.072,1.10E+08
34436,-44.652,-11.5,69.414,1.19E+08
34437,-47.811,-11.5,70.551,9.84E+07
34438,-47.587,-9.6511,69.119,7.07E+07
34439,-47.361,-9.8356,66.572,7.58E+07
34440,-44.925,-9.873,67.846,7.80E+07
34441,-45.872,-9.8039,70.016,7.63E+07
34442,-60.405,-11.5,64.807,9.34E+07
34443,-57.254,-11.5,61.415,1.19E+08
34444,-56.903,-8.7727,62.356,5.58E+07
34445,-59.597,-9.6553,62.471,7.41E+07
34446,-57.866,-9.2279,64.532,6.51E+07
34447,-47.843,-11.5,65.353,1.10E+08
34448,-44.128,-11.5,67.286,1.30E+08
34449,-46.945,-11.5,62.877,1.34E+08
34450,-44.905,-9.846,63.415,8.57E+07
34451,-46.836,-9.8356,64.444,8.62E+07
34452,-44.401,-9.873,65.718,8.84E+07
34453,-49.625,-11.5,69.087,8.84E+07
34454,-49.284,-11.5,63.54,1.14E+08
34455,-50.992,-11.5,63.044,1.12E+08
34456,-49.402,-9.6511,67.655,6.20E+07
34457,-51.359,-9.2539,66.342,5.60E+07
34458,-49.175,-9.8356,65.108,6.69E+07
34459,-50.899,-10.157,64.031,7.38E+07
34460,-46.315,-11.5,74.805,1.01E+08
34461,-43.904,-11.5,71.541,1.20E+08
34462,-47.063,-11.5,72.678,9.91E+07
34463,-42.881,-10.097,72.457,8.67E+07
34464,-46.768,-9.8119,73.751,7.36E+07
34465,-44.445,-8.4294,73.871,5.11E+07
34466,-45.316,-10.063,75.622,7.60E+07
34467,-45.124,-9.8039,72.143,7.75E+07
34468,-61.537,-9.6553,63.898,6.07E+07
34469,-59.806,-9.2279,65.959,5.23E+07
34470,-62.853,-8.5066,65.429,3.99E+07
34471,-63.85,-9.8488,67.128,5.15E+07
34472,-63.487,-11.5,65.017,8.17E+07
34473,-48.32,-11.5,74.284,8.86E+07
34474,-48.62,-11.5,77.969,6.91E+07
34475,-48.025,-9.8119,75.357,6.38E+07
34476,-48.628,-9.9832,77.667,6.09E+07
34477,-46.573,-10.063,77.228,6.66E+07
34478,-41.728,-10.097,70.799,9.58E+07
34479,-43.024,-9.873,68.315,8.84E+07
34480,-43.971,-9.8039,70.485,8.64E+07
34481,-48.845,-9.6511,70.725,6.14E+07
34482,-48.773,-9.8119,73.23,6.32E+07
34483,-47.129,-9.8039,71.622,6.62E+07
34484,-53.923,-11.5,59.761,1.33E+08
34485,-54.044,-9.8127,58.185,8.73E+07
34486,-56.905,-9.934,57.983,9.19E+07
34487,-55.693,-8.7727,60.391,6.68E+07
34488,-58.387,-9.6553,60.506,8.54E+07
34489,-53.83,-10.157,60.748,9.40E+07
34490,-50.094,-11.5,60.568,1.36E+08
34491,-46.346,-9.846,61.602,8.97E+07
34492,-48.277,-9.8356,62.631,9.04E+07
34493,-50.001,-10.157,61.555,9.76E+07
34494,-48.444,-9.8239,60.329,8.74E+07
34495,-51.922,-9.8127,58.496,8.91E+07
34496,-51.709,-10.157,61.059,9.58E+07
34497,-50.151,-9.8239,59.833,8.57E+07
34498,-49.675,-9.9832,79.225,4.08E+07
34499,-49.093,-10.193,80.744,3.61E+07
34500,-50.331,-10.347,81.491,3.14E+07
34501,-58.073,-11.5,-61.648,1.50E+06
34502,-59.747,-11.5,-57.638,2.66E+06
34503,-56.044,-11.5,-60.5,2.02E+06
34504,-56.716,-11.5,-58.185,2.85E+06
34505,-60.579,-9.8766,-58.412,1.91E+06
34506,-57.359,-9.7031,-60.322,1.48E+06
34507,-59.49,-10.239,-60.321,1.41E+06
34508,-58.052,-9.6136,-58.5,1.84E+06
34509,-62.551,-11.5,-51.677,4.81E+06
34510,-63.009,-11.5,-54.065,3.96E+06
34511,-66.81,-11.5,-51.826,3.00E+06
34512,-65.258,-11.5,-50.532,3.90E+06
34513,-66.116,-11.5,-53.778,3.40E+06
34514,-65.002,-10.137,-52.317,3.56E+06
34515,-59.851,-11.5,-65.586,7.70E+05
34516,-56.014,-11.5,-62.618,1.85E+06
34517,-59.608,-9.4143,-64.351,7.37E+05
34518,-58.004,-10.141,-66.167,8.20E+05
34519,-57.329,-9.7031,-62.44,1.21E+06
34520,-59.46,-10.239,-62.438,1.00E+06
34521,-56.488,-10.166,-64.618,1.04E+06
34522,-60.934,-11.5,-53.357,4.72E+06
34523,-63.184,-11.5,-49.824,4.52E+06
34524,-58.546,-11.5,-52.247,5.28E+06
34525,-60.182,-9.2964,-52.134,4.38E+06
34526,-58.935,-10.309,-49.56,5.57E+06
34527,-61.652,-9.7012,-49.775,4.49E+06
34528,-62.928,-10.137,-51.609,4.26E+06
34529,-64.499,-11.5,-55.458,3.31E+06
34530,-59.003,-11.5,-54.635,4.50E+06
34531,-58.36,-11.5,-56.292,3.43E+06
34532,-60.64,-9.2964,-54.522,3.53E+06
34533,-62.223,-9.8766,-56.52,3.21E+06
34534,-59.696,-9.6136,-56.607,2.79E+06
34535,-63.385,-10.137,-53.997,3.41E+06
34536,-70.484,-11.5,-52.658,1.81E+06
34537,-67.442,-11.5,-49.972,3.05E+06
34538,-68.3,-11.5,-53.218,2.28E+06
34539,-69.995,-9.8209,-50.405,1.84E+06
34540,-69.114,-9.7742,-52.901,1.66E+06
34541,-67.186,-10.137,-51.758,2.54E+06
34542,-61.415,-9.4143,-66.171,8.33E+05
34543,-61.875,-9.7597,-69.059,8.36E+05
34544,-59.812,-10.141,-67.987,6.74E+05
34545,-69.79,-11.5,-54.61,1.83E+06
34546,-73.435,-11.5,-55.23,1.98E+06
34547,-71.485,-9.8209,-51.797,1.72E+06
34548,-70.604,-9.7742,-54.293,1.36E+06
34549,-73.005,-9.4687,-53.709,1.64E+06
34550,-66.043,-9.9367,-47.393,3.48E+06
34551,-68.444,-9.8209,-49.112,2.67E+06
34552,-64.359,-9.7012,-48.63,3.79E+06
34553,-65.635,-10.137,-50.464,3.45E+06
34554,-68.42,-9.7742,-54.853,1.91E+06
34555,-65.331,-9.8766,-56.232,2.66E+06
34556,-66.492,-10.137,-53.71,2.86E+06
34557,-54.657,-11.5,-59.155,3.04E+06
34558,-53.416,-9.7789,-59.142,2.78E+06
34559,-52.783,-9.9117,-61.45,2.18E+06
34560,-55.3,-9.7031,-61.292,1.81E+06
34561,-54.459,-10.166,-63.47,1.69E+06
34562,-55.972,-11.5,-55.182,4.52E+06
34563,-58.251,-9.2964,-53.412,4.19E+06
34564,-55.385,-9.9969,-53,5.04E+06
34565,-57.004,-10.309,-50.837,5.34E+06
34566,-57.308,-9.6136,-55.497,3.63E+06
34567,-54.089,-9.7789,-56.827,3.46E+06
34568,-54.743,-9.9969,-54.658,4.24E+06
34569,-55.972,-9.7031,-58.977,2.48E+06
34570,-56.665,-9.6136,-57.154,2.80E+06
34571,-74.467,-9.4687,-54.888,1.98E+06
34572,-76.124,-10.08,-55.976,1.88E+06
34573,-76.961,-10.396,-57.218,1.66E+06
34574,-75.472,-9.421,-57.071,2.11E+06
34575,42.527,-3.7219,6.5175,6.97E+07
34576,40.445,-5.0411,6.4107,5.53E+07
34577,40.663,-3.2135,5.641,6.86E+07
34578,-18,22.096,-55.45,4.29E+07
34579,-18,22.475,-52.735,3.97E+07
34580,-18,19.755,-51.633,7.97E+07
34581,-18,19.406,-55.445,8.43E+07
34582,-15.778,21.348,-54.1,5.23E+07
34583,-16.82,19.702,-52.986,7.42E+07
34584,-18,24.183,-54.377,2.01E+07
34585,-18,21.114,-57.087,6.42E+07
34586,-15.778,23.056,-55.743,4.15E+07
34587,-16.462,21.316,-58.244,4.85E+07
34588,-16.319,23.519,-58.998,2.47E+07
34589,-15.798,24.304,-57.517,2.41E+07
34590,-18,21.842,-50.561,5.72E+07
34591,-18,24.474,-49.923,2.39E+07
34592,-15.778,23.435,-53.028,3.73E+07
34593,-16.14,25.657,-49.738,1.94E+07
34594,-16.43,23.659,-50.38,3.42E+07
34595,-16.82,21.789,-51.914,5.37E+07
34596,-18,21.754,-48.821,6.40E+07
34597,-15.345,18.771,-49.172,9.59E+07
34598,-16.616,19.676,-47.386,9.34E+07
34599,-16.43,20.939,-49.278,6.83E+07
34600,-16.864,17.687,-49.305,1.15E+08
34601,-16.82,19.069,-50.811,8.97E+07
34602,-15.945,16.691,-55.962,1.13E+08
34603,-16.817,16.188,-58.351,1.10E+08
34604,-15.778,20.367,-55.738,7.06E+07
34605,-16.462,18.626,-58.24,8.23E+07
34606,-14.913,18.555,-55.853,8.75E+07
34607,-16.82,18.721,-54.623,9.47E+07
34608,-16.14,25.569,-47.998,2.53E+07
34609,-16.972,24.633,-46.776,3.73E+07
34610,-16.43,23.571,-48.64,3.97E+07
34611,18,18.991,-50.664,1.15E+08
34612,18,18.547,-54.891,9.91E+07
34613,18,20.85,-53.06,7.59E+07
34614,16.116,15.693,-52.193,1.38E+08
34615,15.657,19.266,-51.973,9.67E+07
34616,16.143,20.004,-54.219,7.96E+07
34617,15.167,17.393,-54.223,9.96E+07
34618,15.405,17.722,-50.668,1.28E+08
34619,18,23.001,-49.025,6.06E+07
34620,18,24.859,-51.421,2.60E+07
34621,16.244,23.376,-47.69,6.70E+07
34622,15.91,26.397,-48.252,2.69E+07
34623,16.054,25.461,-50.063,2.51E+07
34624,18,22.112,-57.478,3.96E+07
34625,18,24.415,-55.648,2.49E+07
34626,16.584,25.618,-57.536,1.72E+07
34627,16.505,23.72,-59.184,2.08E+07
34628,16.143,23.569,-56.806,3.37E+07
34629,17.17,25.868,-59.047,1.24E+07
34630,18,22.377,-51.09,5.93E+07
34631,16.65,18.155,-46.914,1.44E+08
34632,15.657,20.793,-50.003,7.74E+07
34633,16.244,20.893,-47.359,9.66E+07
34634,15.405,19.249,-48.698,1.09E+08
34635,16.054,22.978,-49.732,5.52E+07
34636,18,21.933,-55.317,4.57E+07
34637,16.544,16.823,-58.24,6.49E+07
34638,15.229,18.836,-58.278,5.47E+07
34639,16.505,21.237,-58.853,3.74E+07
34640,16.143,21.087,-56.475,5.26E+07
34641,15.167,18.476,-56.48,7.79E+07
34642,16.807,19.018,-59.096,4.53E+07
34643,15.657,22.652,-52.399,5.64E+07
34644,16.584,25.439,-55.374,2.21E+07
34645,16.143,23.39,-54.645,3.68E+07
34646,16.054,24.837,-52.128,3.00E+07
34647,76.019,-7.5187,13.202,1.22E+08
34648,78.639,-4.6595,13.15,1.17E+08
34649,75.476,-8.1112,15.816,1.11E+08
34650,79.189,-4.0592,15.816,1.06E+08
34651,77.346,-6.0703,12.797,1.22E+08
34652,74.506,-5.4482,16.817,8.31E+07
34653,77.719,-3.6871,17.454,8.84E+07
34654,76.689,-4.4015,14.003,1.01E+08
34655,75.303,-5.8944,14.354,1.01E+08
34656,75.481,-6.6172,17.968,9.17E+07
34657,76.918,-3.177,15.466,8.84E+07
34658,75.552,-4.3305,15.524,8.78E+07
34659,76.471,-5.1492,17.456,9.06E+07
34660,85.42,2.7412,13.5,9.72E+07
34661,83.77,0.94028,13.5,1.02E+08
34662,85.97,3.3415,16.167,8.72E+07
34663,82.67,-0.26031,16.167,9.59E+07
34664,82.87,3.7474,16.894,6.89E+07
34665,83.67,3.056,14.853,8.35E+07
34666,81.747,1.7108,14.71,8.31E+07
34667,82.547,2.1651,17.993,7.24E+07
34668,84.603,3.9873,18.255,7.10E+07
34669,92.021,9.9447,13.5,7.86E+07
34670,90.371,8.1438,13.5,8.34E+07
34671,92.571,10.545,16.167,7.05E+07
34672,89.271,6.9432,16.167,7.86E+07
34673,87.949,9.3939,16.833,5.79E+07
34674,90.008,10.994,17.012,5.79E+07
34675,87.968,8.5449,14.795,6.86E+07
34676,89.97,10.643,14.65,6.58E+07
34677,89.738,9.0986,18.356,6.19E+07
34678,91.347,10.47,18.292,6.12E+07
34679,97.214,15.612,13.619,6.73E+07
34680,95.871,14.147,16.167,6.35E+07
34681,98.838,17.385,16.951,5.65E+07
34682,98.413,16.92,14.909,6.15E+07
34683,95.883,16.941,18.274,4.59E+07
34684,97.449,18.804,16.172,4.89E+07
34685,96.258,17.155,14.884,5.53E+07
34686,101.47,20.253,12.5,5.95E+07
34687,103.2,22.144,12.715,5.32E+07
34688,101.29,20.055,16.284,5.18E+07
34689,103.64,22.624,15.5,4.79E+07
34690,100.86,19.59,14.243,5.68E+07
34691,99.896,21.475,15.505,4.43E+07
34692,101.53,22.364,16.507,4.22E+07
34693,101.24,22.226,12,5.06E+07
34694,102,23.418,14.117,4.41E+07
34695,99.725,21.27,13.521,4.88E+07
34696,74.136,-9.5727,13.553,1.22E+08
34697,73.311,-10.473,11.553,1.29E+08
34698,76.007,-7.5318,10.533,1.33E+08
34699,73.889,-7.3719,9.3611,1.23E+08
34700,73.964,-7.3559,12.09,1.12E+08
34701,72.23,-8.2161,11.267,1.10E+08
34702,72.787,-8.7666,8.986,1.27E+08
34703,95.014,13.211,10.952,7.85E+07
34704,91.471,9.3444,10.833,8.77E+07
34705,93.671,11.746,13.5,7.47E+07
34706,93.057,13.644,9.9565,7.29E+07
34707,91.205,11.874,9.3915,7.69E+07
34708,91.07,11.844,11.983,7.00E+07
34709,92.133,13.979,12.604,6.27E+07
34710,92.806,12.563,8.8374,7.91E+07
34711,84.87,2.1409,10.833,1.08E+08
34712,88.17,5.7426,10.833,9.77E+07
34713,87.07,4.5421,13.5,9.29E+07
34714,84.194,5.087,10.088,8.86E+07
34715,85.913,6.9324,10.032,8.53E+07
34716,85.768,6.1437,12.128,8.28E+07
34717,84.77,4.2565,12.186,8.92E+07
34718,87.106,6.1765,8.6921,9.78E+07
34719,85.561,4.6342,8.797,1.01E+08
34720,81.57,-1.4609,10.833,1.19E+08
34721,80.469,-2.6615,13.5,1.12E+08
34722,78.627,-4.6726,10.48,1.28E+08
34723,78.259,-2.4628,9.5338,1.14E+08
34724,77.969,-3.0038,11.686,1.07E+08
34725,79.547,-0.69036,12.043,9.91E+07
34726,80.104,-0.87131,9.1062,1.14E+08
34727,72.768,-11.066,14.167,1.18E+08
34728,70.601,-9.3279,17.007,8.28E+07
34729,72.624,-7.5022,17.167,8.28E+07
34730,73.421,-7.9484,14.704,1.01E+08
34731,70.869,-10.694,15.281,9.77E+07
34732,71.687,-8.8086,13.88,9.90E+07
34733,70.993,-7.825,15.466,8.30E+07
34734,71.151,-11.264,18.006,9.06E+07
34735,73.599,-8.6712,18.318,9.15E+07
34736,72.39,-10.227,18.187,9.31E+07
34737,98.713,17.247,10.619,7.10E+07
34738,95.564,13.811,13.619,7.03E+07
34739,98.105,16.584,12.362,6.83E+07
34740,94.949,15.709,10.076,6.86E+07
34741,96.344,17.561,9.3782,6.65E+07
34742,95.95,16.819,12.337,6.21E+07
34743,94.026,16.045,12.723,5.83E+07
34744,96.971,18.264,11.64,6.02E+07
34745,102.25,21.109,10.382,6.15E+07
34746,99.911,18.555,11.909,6.52E+07
34747,98.15,19.531,8.9259,6.33E+07
34748,100.29,21.191,9.6666,5.89E+07
34749,98.777,20.235,11.188,5.71E+07
34750,104.42,23.479,13.382,4.99E+07
34751,102.03,23.081,9.882,5.26E+07
34752,103.54,24.979,9.5844,4.95E+07
34753,102.79,24.274,11.999,4.61E+07
34754,82.12,-0.86061,13.5,1.07E+08
34755,82.544,3.2861,10.088,9.38E+07
34756,83.12,2.4557,12.186,9.45E+07
34757,81.197,1.1105,12.043,9.40E+07
34758,81.754,0.92958,9.1062,1.09E+08
34759,83.911,2.8333,8.797,1.07E+08
34760,88.721,6.3429,13.5,8.77E+07
34761,87.563,8.7332,10.032,8.02E+07
34762,89.555,10.073,9.3915,8.17E+07
34763,87.418,7.9446,12.128,7.77E+07
34764,89.42,10.043,11.983,7.48E+07
34765,88.757,7.9774,8.6921,9.27E+07
34766,92.081,14.612,17.29,4.72E+07
34767,94.233,15.141,18.274,4.89E+07
34768,94.608,15.354,14.884,5.83E+07
34769,91.658,12.795,17.012,5.40E+07
34770,91.62,12.444,14.65,6.19E+07
34771,92.683,14.579,15.271,5.46E+07
34772,93.394,13.761,18.28,5.19E+07
34773,92.997,12.271,18.292,5.73E+07
34774,84.52,5.5483,16.894,6.46E+07
34775,86.299,7.593,16.833,6.22E+07
34776,86.318,6.744,14.795,7.29E+07
34777,85.32,4.8568,14.853,7.92E+07
34778,88.087,7.2977,18.356,6.62E+07
34779,86.254,5.7882,18.255,6.67E+07
34780,79.55,-1.6891,17.805,8.29E+07
34781,78.519,-2.4035,14.353,9.56E+07
34782,80.097,-9.01E-02,14.71,8.74E+07
34783,79.133,0.48608,16.868,7.09E+07
34784,80.897,0.36421,17.993,7.68E+07
34785,78.748,-1.179,15.816,8.30E+07
34786,69.938,-11.387,10.924,1.14E+08
34787,70.044,-11.594,13.281,1.05E+08
34788,70.862,-9.709,11.88,1.06E+08
34789,70.617,-11.942,9.3974,1.27E+08
34790,71.419,-10.26,9.5999,1.23E+08
34791,99.729,18.357,15.694,5.74E+07
34792,97.2,18.378,19.058,4.19E+07
34793,98.766,20.241,16.956,4.49E+07
34794,100.4,21.131,17.958,4.29E+07
34795,99.953,19.282,19.164,4.51E+07
34796,102.75,23.699,17.174,3.89E+07
34797,104.11,25.929,17.073,3.42E+07
34798,103.23,24.754,14.784,4.08E+07
34799,98.34,19.777,14.914,4.99E+07
34800,97.149,18.127,13.627,5.62E+07
34801,98.169,19.572,12.931,5.44E+07
34802,75.217,-5.9234,8.9555,1.23E+08
34803,76.967,-3.8736,9.1808,1.18E+08
34804,76.677,-4.4146,11.334,1.12E+08
34805,75.291,-5.9075,11.684,1.12E+08
34806,76.924,-5.0775,8.313,1.30E+08
34807,13,32.21,69.601,4.36E+08
34808,13,36.328,72.649,2.86E+08
34809,10.827,33.561,71.369,3.16E+08
34810,11.25,36.872,71.701,2.51E+08
34811,11.815,34.687,72.891,2.78E+08
34812,11.724,32.01,71.103,3.45E+08
34813,13,44.914,56.414,1.09E+08
34814,13,40.51,53.36,2.15E+08
34815,11.363,43.919,54.867,1.32E+08
34816,11.281,41.762,53.941,1.70E+08
34817,13,32.254,56.346,5.71E+08
34818,13,36.407,53.332,3.52E+08
34819,11.473,35.614,54.493,3.46E+08
34820,11.556,33.229,54.531,4.34E+08
34821,11.785,35.219,53.173,3.36E+08
34822,13,44.845,69.686,1.27E+08
34823,13,40.419,72.669,1.90E+08
34824,11.25,40.963,71.721,1.93E+08
34825,11.578,44.085,70.952,1.52E+08
34826,11.79,42.363,72.515,1.67E+08
34827,13,47.79,60.805,5.02E+07
34828,11.363,46.144,56.989,7.83E+07
34829,11.177,47.371,59.545,5.85E+07
34830,13,29.346,65.22,5.95E+08
34831,11.178,30.21,67.623,4.98E+08
34832,11.792,28.805,66.894,5.50E+08
34833,11.724,29.8,68.979,4.33E+08
34834,13,29.358,60.709,6.84E+08
34835,11.543,29.487,57.613,6.62E+08
34836,11.169,28.303,59.955,6.89E+08
34837,10.635,30.521,58.284,6.43E+08
34838,11.556,30.999,56.639,5.89E+08
34839,13,47.764,65.341,5.02E+07
34840,11.578,46.327,68.873,9.55E+07
34841,11.17,47.859,66.372,5.58E+07
34842,11.631,47.947,69.394,7.15E+07
34843,11.683,48.022,68.086,6.72E+07
34844,11.177,48.023,61.815,4.26E+07
34845,11.17,48.537,64.106,4.15E+07
34846,11.169,27.637,62.209,6.61E+08
34847,11.792,28.151,64.637,6.16E+08
34848,11.473,37.537,53.588,2.75E+08
34849,11.281,39.582,53.008,2.17E+08
34850,11.785,37.142,52.267,2.62E+08
34851,11.25,38.779,72.625,2.03E+08
34852,11.168,39.26,74.266,1.73E+08
34853,11.815,36.594,73.815,2.11E+08
34854,11.79,40.179,73.419,1.79E+08
34855,13,36.99,117.91,8.24E+06
34856,13,39.144,112.07,3.49E+07
34857,11.237,37.387,113.34,2.65E+07
34858,11.728,36.169,116.05,1.12E+07
34859,11.432,35.529,115,1.33E+07
34860,13,52.685,111.82,2.05E+07
34861,13,48.14,108.91,4.50E+07
34862,11.153,49.65,108.65,4.11E+07
34863,11.422,51.67,109.91,3.15E+07
34864,11.618,52.135,108.43,3.21E+07
34865,13,55.425,115.67,5.94E+06
34866,11.422,53.689,112.03,1.53E+07
34867,11.449,54.126,114.44,1.20E+07
34868,11.495,55.376,115.73,7.69E+06
34869,13,39.226,123.89,1.58E+06
34870,9.7985,36.84,121.04,3.26E+06
34871,11.728,36.118,119.35,2.52E+06
34872,10.673,38.15,123.01,2.30E+06
34873,13,52.721,124.29,2.03E+06
34874,13,55.418,119.76,3.31E+06
34875,11.495,55.369,119.82,4.89E+06
34876,11.401,54.387,123.09,3.12E+06
34877,13,43.827,127.22,1.02E+06
34878,10.673,40.437,125.68,1.51E+06
34879,11.534,42.914,127.45,1.02E+06
34880,13,48.448,127.17,1.33E+06
34881,11.401,52.419,125.26,2.15E+06
34882,11.272,49.386,126.76,1.65E+06
34883,13,43.43,108.84,5.17E+07
34884,11.237,39.491,110.81,4.35E+07
34885,10.761,40.026,108.09,5.30E+07
34886,11.357,42.234,108.98,5.24E+07
34887,10.528,44.555,106.47,5.27E+07
34888,11.153,47.122,107.87,4.61E+07
34889,11.357,44.417,108.28,5.07E+07
34890,11.272,47.081,127.47,1.38E+06
34891,11.534,45.229,128.1,1.04E+06
34892,11.495,56.098,117.45,6.62E+06
34893,20,8.1423,-46.768,2.50E+08
34894,20,7.9892,-50.91,2.86E+08
34895,18.346,8.9065,-47.997,2.51E+08
34896,19.365,8.624,-50.281,2.63E+08
34897,18.367,6.2115,-50.707,2.66E+08
34898,18.413,6.8223,-47.757,2.69E+08
34899,20,7.4273,-54.975,2.71E+08
34900,18.554,5.6839,-57.485,2.22E+08
34901,19.491,7.9337,-56.564,2.28E+08
34902,19.133,7.8142,-58.888,1.54E+08
34903,18.367,5.6497,-54.772,2.51E+08
34904,18.346,9.1724,-46.087,2.16E+08
34905,18.531,10.221,-44.212,2.28E+08
34906,18.413,7.0881,-45.847,2.30E+08
34907,19.365,8.7367,-52.514,2.59E+08
34908,19.491,8.6082,-54.732,2.38E+08
34909,18.367,6.3242,-52.94,2.62E+08
34910,-10.594,40.842,-56.992,7.00E+06
34911,-10.594,41.249,-53.118,6.94E+06
34912,-8.2969,41.172,-53.851,7.74E+06
34913,-8.3359,40.921,-56.234,7.46E+06
34914,-9.7426,39.6,-51.965,4.86E+06
34915,-9.1797,40.718,-58.171,6.21E+06
34916,-11.036,39.062,-60.412,3.62E+06
34917,-13.458,39.351,-60.633,3.45E+06
34918,-9.1406,41.375,-51.914,6.39E+06
34919,-10.586,39.803,-50.028,3.92E+06
34920,-13.318,40.21,-49.488,3.20E+06
34921,-6.8828,41.048,-55.03,6.80E+06
34922,-8.2894,39.726,-50.762,4.54E+06
34923,-5.5605,40.224,-50.137,4.36E+06
34924,-8.778,39.142,-59.654,4.06E+06
34925,-5.6128,39.113,-59.713,3.55E+06
34926,-5.8694,39.289,-57.67,4.79E+06
34927,8.9062,40.842,-56.992,1.17E+07
34928,8.9062,41.249,-53.118,1.19E+07
34929,11.203,41.172,-53.851,1.21E+07
34930,11.164,40.921,-56.234,1.22E+07
34931,7.5236,39.797,-54.141,1.04E+07
34932,8.3281,38.957,-57.077,9.35E+06
34933,12.139,39.822,-54.6,1.05E+07
34934,10.32,40.718,-58.171,1.02E+07
34935,6.2955,39.27,-60.591,5.33E+06
34936,7.4843,38.753,-59.014,7.81E+06
34937,8.6307,39.225,-60.482,6.34E+06
34938,10.359,41.375,-51.914,1.03E+07
34939,9.107,39.436,-49.686,6.96E+06
34940,6.3574,40.302,-49.423,6.22E+06
34941,6.6799,40.001,-52.204,8.89E+06
34942,12.617,41.048,-55.03,1.05E+07
34943,13.971,39.513,-51.593,7.08E+06
34944,11.404,39.359,-50.42,6.98E+06
34945,14.124,40.355,-49.984,5.56E+06
34946,13.592,39.948,-53.397,9.15E+06
34947,11.669,37.783,-58.88,7.13E+06
34948,13.99,39.2,-57.354,8.00E+06
34949,13.868,39.069,-59.553,6.06E+06
34950,9.7421,38.833,-58.256,8.08E+06
34951,10.889,39.305,-59.723,6.81E+06
34952,13.553,39.698,-55.779,9.10E+06
34953,-2.3473,-11.153,-54.324,1.53E+08
34954,-0.12228,-11.217,-54.638,1.54E+08
34955,1.8888,-11.632,-54.856,1.57E+08
34956,-1.4071,-11.073,-52.407,1.60E+08
34957,0.93646,-10.704,-52.894,1.56E+08
34958,0.17351,-10.627,-50.296,1.51E+08
34959,-69.026,-4.2434,-50.379,1.80E+06
34960,-66.536,-6.5535,-48.507,2.54E+06
34961,-68.937,-6.4377,-50.225,1.80E+06
34962,-65.862,-4.7135,-52.719,1.98E+06
34963,-68.056,-6.391,-52.721,1.53E+06
34964,-68.86,-4.6211,-52.927,1.57E+06
34965,-66.878,-4.4136,-48.613,2.30E+06
34966,-64.852,-6.318,-49.743,2.71E+06
34967,-64.2,-4.4417,-49.732,2.38E+06
34968,-66.128,-6.7541,-51.578,2.37E+06
34969,-71.085,-5.9476,-49.699,2.02E+06
34970,-72.605,-5.5953,-51.61,1.87E+06
34971,-73.347,-3.7517,-52.501,1.86E+06
34972,-71.008,-4.131,-52.4,1.64E+06
34973,-69.026,-3.9234,-48.086,2.48E+06
34974,-68.596,-8.2577,-47.826,2.53E+06
34975,-64.876,-5.6545,-44.894,3.58E+06
34976,-66.537,-6.2335,-46.214,3.02E+06
34977,-64.879,-8.9339,-43.849,4.27E+06
34978,-64.511,-8.1379,-47.344,3.22E+06
34979,-63.139,-8.0282,-45.616,3.89E+06
34980,-65.787,-8.574,-49.179,2.85E+06
34981,-65.915,-9.3198,-44.591,3.80E+06
34982,-62.367,-5.8931,-53.916,2.68E+06
34983,-61.472,-7.673,-55.297,2.87E+06
34984,-58.845,-5.4071,-55.72,1.94E+06
34985,-57.022,-7.7933,-52.888,3.75E+06
34986,-58.641,-8.1059,-50.725,4.40E+06
34987,-58.636,-5.5627,-52.59,2.93E+06
34988,-61.357,-7.4976,-50.94,3.30E+06
34989,-60.705,-5.6213,-50.929,2.96E+06
34990,-58.944,-7.41,-55.385,2.47E+06
34991,-57.463,-5.7835,-54.278,2.41E+06
34992,-62.633,-7.9337,-52.774,3.07E+06
34993,-61.056,-5.8597,-54.91,2.61E+06
34994,-70.116,-8.0952,-52.04,1.38E+06
34995,-72.516,-7.7896,-51.456,1.82E+06
34996,-70.919,-6.3253,-52.246,1.61E+06
34997,-68.937,-6.1177,-47.932,2.43E+06
34998,-68.188,-8.4582,-50.897,2.02E+06
34999,-67.041,-6.3709,-54.534,1.73E+06
35000,-63.951,-6.4733,-55.914,2.45E+06
35001,-67.844,-4.601,-54.74,1.59E+06
35002,-63.837,-6.2979,-51.557,2.95E+06
35003,-63.184,-4.4216,-51.545,2.61E+06
35004,-65.113,-6.734,-53.391,2.66E+06
35005,-63.535,-4.66,-55.526,2.21E+06
35006,-61.875,-5.3844,-41.685,5.37E+06
35007,-61.171,-3.2491,-43.905,3.61E+06
35008,-62.096,-3.4431,-41.47,5.05E+06
35009,-65.217,-3.5145,-45,3.44E+06
35010,-63.56,-6.2149,-42.635,4.67E+06
35011,-63.192,-5.4189,-46.13,3.41E+06
35012,-62.54,-3.5427,-46.119,3.13E+06
35013,-61.819,-5.3092,-44.402,4.08E+06
35014,-71.636,-7.7429,-53.951,1.33E+06
35015,-70.039,-6.2786,-54.742,1.20E+06
35016,-67.307,-8.4115,-53.392,2.11E+06
35017,-74.778,-5.5937,-54.259,1.75E+06
35018,-75.694,-8.0485,-54.455,1.52E+06
35019,-72.44,-5.973,-54.158,1.53E+06
35020,-75.041,-7.3897,-55.55,1.71E+06
35021,-61.975,-6.6615,-59.213,1.75E+06
35022,-61.966,-8.6156,-59.203,1.89E+06
35023,-60.528,-7.9902,-57.382,2.08E+06
35024,-64.217,-8.5139,-54.772,2.84E+06
35025,-62.639,-6.4399,-56.907,2.40E+06
35026,-76.435,-6.2048,-55.346,1.60E+06
35027,-77.126,-3.6762,-56.49,1.31E+06
35028,-73.181,-4.1293,-55.049,1.58E+06
35029,-75.783,-5.546,-56.441,1.81E+06
35030,-59.489,-5.698,-41.91,5.04E+06
35031,-58.437,-6.2049,-38.014,6.96E+06
35032,-59.438,-8.7015,-37.801,8.38E+06
35033,-57.277,-8.2423,-38.692,7.12E+06
35034,-60.414,-5.892,-39.475,6.39E+06
35035,-61.878,-8.6638,-40.64,6.05E+06
35036,-58.349,-7.991,-41.151,6.06E+06
35037,-60.138,-7.7582,-42.407,5.51E+06
35038,-57.107,-3.6599,-45.749,3.37E+06
35039,-56.452,-4.0299,-42.893,4.05E+06
35040,-59.711,-3.7567,-41.695,4.52E+06
35041,-60.154,-3.8562,-46.344,3.36E+06
35042,-57.646,-5.8556,-43.371,5.11E+06
35043,-59.434,-5.6228,-44.627,4.33E+06
35044,-56.34,-5.2983,-44.66,4.40E+06
35045,-57.978,-2.7596,-43.018,3.55E+06
35046,-52.215,-8.1906,-59.122,2.42E+06
35047,-50.894,-5.8003,-56.64,2.95E+06
35048,-50.447,-8.4121,-58.222,2.67E+06
35049,-52.658,-5.514,-54.326,3.03E+06
35050,-53.502,-8.2758,-54.645,3.74E+06
35051,-52.984,-6.3081,-57.972,2.36E+06
35052,-54.732,-7.982,-58.965,2.16E+06
35053,-51.136,-8.3453,-54.529,4.53E+06
35054,-55.425,-7.8925,-57.142,2.33E+06
35055,-53.943,-6.266,-56.036,2.59E+06
35056,-51.324,-8.9364,-56.294,3.90E+06
35057,-61.034,-6.1992,-63.034,9.98E+05
35058,-58.217,-4.7949,-63.037,6.38E+05
35059,-59.348,-4.3956,-59.636,8.20E+05
35060,-58.755,-6.4881,-61.123,7.65E+05
35061,-60.886,-7.024,-61.122,1.13E+06
35062,-59.448,-6.3985,-59.301,1.21E+06
35063,-61.559,-4.8482,-58.826,1.51E+06
35064,-78.189,-8.9758,-56.784,1.21E+06
35065,-76.699,-8.0008,-56.637,1.64E+06
35066,-58.356,-5.9243,-64.939,5.71E+05
35067,-61.632,-7.674,-67.824,8.18E+05
35068,-59.568,-8.055,-66.752,5.68E+05
35069,-60.421,-6.1643,-66.869,6.71E+05
35070,-58.894,-7.6174,-63.025,7.71E+05
35071,-61.025,-8.1534,-63.023,1.07E+06
35072,-58.053,-8.0805,-65.203,5.11E+05
35073,-53.948,-3.3637,-49.603,3.10E+06
35074,-54.773,-4.1271,-44.512,3.98E+06
35075,-56.411,-6.438,-47.76,4.61E+06
35076,-56.406,-3.8949,-49.624,3.19E+06
35077,-58.475,-3.9534,-47.963,3.14E+06
35078,-53.414,-3.6622,-46.273,3.94E+06
35079,-57.755,-5.72,-46.246,3.96E+06
35080,-53.909,-4.7711,-48.188,4.11E+06
35081,-54.661,-5.3955,-46.28,4.72E+06
35082,-78.495,-5.6324,-59.691,1.05E+06
35083,-79.388,-3.8699,-60.257,5.60E+05
35084,-78.879,-6.4472,-57.928,1.00E+06
35085,-77.389,-5.4722,-57.781,1.39E+06
35086,-57.682,-7.0731,-36.125,8.67E+06
35087,-55.037,-6.2049,-34.43,8.32E+06
35088,-54.679,-4.0094,-34.626,6.21E+06
35089,-55.521,-6.6138,-37.016,7.15E+06
35090,-55.4,-4.5367,-38.997,4.91E+06
35091,-58.659,-4.2635,-37.799,6.66E+06
35092,-56.594,-6.3625,-39.475,5.96E+06
35093,-53.517,-4.5795,-36.777,4.64E+06
35094,-56.815,-3.4817,-34.783,8.63E+06
35095,-56.415,-7.219,-34.873,9.89E+06
35096,-56.522,-9.1105,-36.803,8.37E+06
35097,-57.416,-9.7156,-34.66,1.14E+07
35098,-48.802,-3.6832,-53.611,3.42E+06
35099,-46.737,-6.002,-50.19,5.74E+06
35100,-48.907,-6.2499,-48.799,5.57E+06
35101,-50.565,-3.3969,-51.297,3.70E+06
35102,-48.208,-4.014,-48.73,4.53E+06
35103,-49.043,-6.2282,-51.5,5.13E+06
35104,-50.526,-4.8043,-49.882,4.30E+06
35105,-46.864,-3.4707,-50.463,4.40E+06
35106,-46.826,-4.371,-52.1,4.34E+06
35107,-53.561,-6.4216,-63.186,1.27E+06
35108,-49.667,-5.9992,-61.112,2.03E+06
35109,-49.814,-8.5448,-60.529,2.34E+06
35110,-51.498,-6.0775,-62.206,1.51E+06
35111,-52.35,-6.4409,-60.28,1.83E+06
35112,-54.098,-8.1148,-61.272,1.50E+06
35113,-53.257,-8.5778,-63.45,1.40E+06
35114,-50.227,-9.4116,-61.662,1.78E+06
35115,-56.752,-6.6507,-66.755,4.51E+05
35116,-57.605,-4.76,-66.872,4.08E+05
35117,-53.477,-4.1758,-63.963,1.00E+06
35118,-56.671,-4.1206,-61.542,5.67E+05
35119,-54.329,-4.5392,-62.036,1.18E+06
35120,-56.077,-6.2131,-63.029,8.59E+05
35121,-55.236,-6.6762,-65.206,7.41E+05
35122,-79.15,-5.8999,-62.118,7.20E+05
35123,-79.357,-8.0476,-63.614,7.74E+05
35124,-79.46,-8.5035,-61.734,7.18E+05
35125,-78.642,-8.4772,-59.789,1.11E+06
35126,-77.152,-7.5022,-59.642,1.49E+06
35127,-60.029,-8.4004,-69.64,6.17E+05
35128,-60.881,-6.5097,-69.757,6.82E+05
35129,-63.963,-8.2964,-71.832,7.06E+05
35130,-64.112,-5.9042,-72.157,7.53E+05
35131,-62.085,-5.9387,-71.461,8.64E+05
35132,-46.353,-8.6839,-39.841,7.08E+06
35133,-48.461,-8.8701,-37.986,4.92E+06
35134,-48.012,-6.9281,-41.069,6.11E+06
35135,-49.492,-8.7426,-43.84,6.78E+06
35136,-52.097,-8.7302,-39.267,6.87E+06
35137,-51.976,-6.6531,-41.248,5.83E+06
35138,-53.17,-8.4789,-41.725,6.64E+06
35139,-50.093,-6.6958,-39.027,4.83E+06
35140,-48.019,-8.7593,-41.772,6.95E+06
35141,-51.864,-7.9216,-43.015,6.43E+06
35142,-49.738,-6.9126,-41.755,5.97E+06
35143,-50.603,-9.4879,-37.515,6.70E+06
35144,-47.152,-5.6504,-56.503,3.95E+06
35145,-48.346,-3.6089,-58.629,2.65E+06
35146,-46.706,-3.278,-56.679,3.72E+06
35147,-48.493,-6.1546,-58.047,2.97E+06
35148,-50.703,-3.2565,-54.15,2.65E+06
35149,-51.03,-4.0506,-57.797,2.45E+06
35150,-49.182,-6.0878,-54.354,4.18E+06
35151,-51.989,-4.0085,-55.861,2.29E+06
35152,-46.964,-4.2306,-54.954,4.14E+06
35153,-49.37,-6.6789,-56.119,3.75E+06
35154,-51.785,-6.325,-30.755,8.11E+06
35155,-52.87,-8.6747,-30.913,1.14E+07
35156,-53.034,-5.6379,-32.718,7.43E+06
35157,-53.877,-8.2423,-35.109,8.00E+06
35158,-51.873,-6.2079,-34.869,5.61E+06
35159,-52.383,-9,-33.357,8.36E+06
35160,-51.491,-7.3287,-32.646,6.52E+06
35161,-54.771,-8.8474,-32.965,1.10E+07
35162,-80.25,-6.2851,-64.18,3.89E+05
35163,-79.657,-4.0259,-65.43,4.32E+05
35164,-80.353,-6.741,-62.3,3.19E+05
35165,-80.751,-3.3587,-63.934,3.39E+05
35166,-58.817,-6.8907,-68.685,4.96E+05
35167,-56.449,-8.8069,-67.019,7.01E+05
35168,-60.873,-4.429,-70.506,6.35E+05
35169,-42.027,-7.1458,-46.942,6.35E+06
35170,-44.274,-6.5528,-47.758,5.89E+06
35171,-44.964,-4.9861,-43.596,6.57E+06
35172,-43.05,-6.855,-44.901,7.07E+06
35173,-46.444,-6.8007,-46.368,6.08E+06
35174,-45.745,-4.5648,-46.298,5.57E+06
35175,-41.603,-4.8148,-46.053,6.75E+06
35176,-43.166,-4.0026,-43.63,9.57E+06
35177,-42.538,-5.3327,-43.654,9.96E+06
35178,-44.401,-4.0216,-48.032,4.88E+06
35179,-44.971,-6.8174,-44.3,6.40E+06
35180,-42.658,-5.2517,-47.919,4.94E+06
35181,-46.559,-5.7165,-58.668,3.53E+06
35182,-44.919,-5.3856,-56.717,4.60E+06
35183,-42.904,-8.1917,-54.564,6.26E+06
35184,-45.088,-7.9692,-53.082,5.15E+06
35185,-46.706,-8.2622,-58.085,3.78E+06
35186,-47.394,-8.1954,-54.393,4.60E+06
35187,-45.177,-6.3382,-54.992,4.88E+06
35188,-47.582,-8.7865,-56.158,4.33E+06
35189,-46.112,-3.3442,-58.844,3.72E+06
35190,-47.899,-6.2207,-60.212,2.57E+06
35191,-49.584,-3.7534,-61.889,1.96E+06
35192,-50.436,-4.1168,-59.962,1.94E+06
35193,-79.446,-8.4243,-67.635,5.38E+05
35194,-79.864,-6.1735,-66.926,5.46E+05
35195,-80.559,-8.8887,-63.796,2.97E+05
35196,-65.982,-6.1812,-73.276,8.07E+05
35197,-67.452,-8.3626,-73.71,5.36E+05
35198,-67.601,-5.9705,-74.035,6.08E+05
35199,-64.104,-3.8235,-72.906,7.61E+05
35200,-68.789,-3.3546,-73.687,4.70E+05
35201,-42.962,-3.1947,-55.098,5.75E+06
35202,-44.73,-3.9658,-55.168,4.54E+06
35203,-51.262,-7.1664,-29.145,1.04E+07
35204,-48.453,-6.3908,-27.316,1.32E+07
35205,-49.908,-7.2188,-28.585,8.69E+06
35206,-51.426,-4.1296,-30.951,7.15E+06
35207,-48.999,-3.9989,-30.644,1.08E+07
35208,-47.853,-6.7502,-30.294,1.18E+07
35209,-49.658,-3.7604,-27.655,1.07E+07
35210,-47.279,-4.6207,-28.403,2.10E+07
35211,-49.884,-5.8204,-30.879,7.13E+06
35212,-52.087,-3.5235,-29.431,1.02E+07
35213,-39.738,-8.202,-37.104,3.56E+07
35214,-40.059,-8.1841,-39.774,2.12E+07
35215,-41.795,-8.6618,-36.1,2.29E+07
35216,-44.981,-8.745,-36.988,9.22E+06
35217,-44.532,-6.8029,-40.071,9.52E+06
35218,-42.618,-8.6718,-41.376,8.64E+06
35219,-43.989,-6.5753,-37.525,1.39E+07
35220,-41.939,-6.3091,-37.131,2.40E+07
35221,-40.518,-6.4983,-38.74,2.63E+07
35222,-42.106,-7.1495,-40.129,1.39E+07
35223,-44.538,-8.6342,-40.775,7.77E+06
35224,-39.076,-6.238,-51.675,7.52E+06
35225,-38.459,-8.5162,-51.153,7.55E+06
35226,-40.947,-6.0008,-52.944,7.09E+06
35227,-40.38,-8.9959,-50.288,6.32E+06
35228,-42.627,-8.4029,-51.104,6.42E+06
35229,-42.716,-6.7719,-53.014,6.36E+06
35230,-41.011,-7.1018,-51.265,6.23E+06
35231,-78.853,-6.1651,-68.885,7.06E+05
35232,-77.517,-6.2799,-70.576,6.84E+05
35233,-77.578,-8.5956,-71.269,6.98E+05
35234,-70.872,-8.2111,-74.011,4.92E+05
35235,-70.259,-5.536,-74.121,5.25E+05
35236,-50.993,-9.5685,-28.743,1.06E+07
35237,-51.86,-9.8414,-31.747,9.78E+06
35238,-50.968,-8.1701,-31.037,8.52E+06
35239,-54.248,-9.6888,-31.356,1.29E+07
35240,-35.812,-4.2404,-47.923,1.10E+07
35241,-37.093,-6.1288,-50.243,7.43E+06
35242,-39.581,-3.6134,-52.034,7.28E+06
35243,-38.589,-4.2775,-48.489,4.81E+06
35244,-39.644,-4.7145,-50.354,5.71E+06
35245,-77.935,-4.0291,-69.867,5.87E+05
35246,-80.364,-3.2471,-66.68,4.20E+05
35247,-46.061,-5.6796,-24.511,2.60E+07
35248,-46.24,-8.5701,-23.67,2.26E+07
35249,-44.54,-8.3745,-26.943,3.08E+07
35250,-48.183,-8.7928,-26.914,1.19E+07
35251,-46.128,-8.3242,-28.623,1.68E+07
35252,-47.933,-5.3344,-25.984,1.56E+07
35253,-45.554,-6.1947,-26.731,2.68E+07
35254,-44.315,-7.7342,-25.047,3.99E+07
35255,-48.03,-10.005,-24.223,1.20E+07
35256,-72.06,-5.5952,-73.663,5.49E+05
35257,-74.636,-6.2071,-72.556,4.75E+05
35258,-74.696,-8.5228,-73.249,6.38E+05
35259,-74.023,-3.532,-72.665,2.52E+05
35260,-35.195,-6.5185,-47.401,1.12E+07
35261,-31.469,-4.4393,-45.106,4.00E+07
35262,-31.528,-7.1034,-45.393,3.85E+07
35263,-31.896,-6.564,-43.225,6.16E+07
35264,-33.388,-4.532,-42.765,4.76E+07
35265,-35.793,-6.5359,-45.045,1.76E+07
35266,-35.579,-6.2197,-42.893,2.57E+07
35267,-35.928,-4.1274,-43.92,2.33E+07
35268,-33.502,-6.8251,-46.477,1.52E+07
35269,-33.907,-6.9901,-44.285,2.83E+07
35270,-36.691,-4.6672,-45.647,1.50E+07
35271,-33.82,-5.9213,-34.258,1.04E+08
35272,-36.914,-8.0557,-32.096,7.05E+07
35273,-36.923,-7.8273,-38.035,4.39E+07
35274,-34.896,-8.1678,-33.656,8.81E+07
35275,-38.66,-8.3051,-34.36,4.83E+07
35276,-38.804,-5.9524,-35.392,4.91E+07
35277,-37.383,-6.1415,-37,5.03E+07
35278,-36.64,-5.9494,-34.181,6.98E+07
35279,-33.935,-7.9813,-35.816,9.01E+07
35280,-35.431,-8.6081,-37.221,5.81E+07
35281,-35.469,-6.0224,-36.288,7.13E+07
35282,-37.074,-8.4243,-47.364,6.22E+06
35283,-38.396,-8.8867,-48.855,6.37E+06
35284,-34.783,-8.7135,-48.797,7.66E+06
35285,-37.972,-6.5557,-47.967,5.29E+06
35286,-39.027,-6.9926,-49.832,6.15E+06
35287,-42.707,-3.8275,-24.513,5.21E+07
35288,-45.573,-6.285,-22.536,2.97E+07
35289,-43.8,-4.0112,-21.645,4.88E+07
35290,-47.266,-3.0492,-24.851,2.22E+07
35291,-44.887,-3.9096,-25.598,3.35E+07
35292,-43.648,-5.449,-23.914,4.67E+07
35293,-76.66,-6.4596,-72.252,7.01E+05
35294,-41.114,-4.4443,-22.78,6.69E+07
35295,-37.82,-4.4566,-23.119,8.93E+07
35296,-38.622,-6.2633,-27.238,7.94E+07
35297,-37.882,-4.1255,-27.186,8.62E+07
35298,-41.186,-6.5224,-26.945,5.83E+07
35299,-38.376,-5.6791,-25.2,8.99E+07
35300,-42.2,-4.3427,-26.733,5.42E+07
35301,-40.961,-5.8822,-25.049,6.66E+07
35302,-40.24,-5.0743,-27.785,6.41E+07
35303,-45.338,-10.165,-20.426,3.26E+07
35304,-43.979,-6.9017,-20.803,4.59E+07
35305,-43.827,-8.3396,-23.072,4.29E+07
35306,-47.542,-10.611,-22.248,1.24E+07
35307,-28.739,-4.4445,-41.664,1.01E+08
35308,-29.082,-6.9126,-45.418,5.56E+07
35309,-27.048,-4.1225,-43.848,1.33E+08
35310,-27.571,-7.0446,-44.534,1.10E+08
35311,-29.45,-6.3732,-43.25,7.27E+07
35312,-30.943,-4.3411,-42.789,5.88E+07
35313,-31.057,-6.6343,-46.501,3.28E+07
35314,-26.764,-4.3185,-40.383,1.83E+08
35315,-25.735,-3.8777,-38.138,2.63E+08
35316,-29.746,-4.3189,-35.675,1.55E+08
35317,-29.166,-6.5693,-39.784,1.36E+08
35318,-27.479,-6.7727,-37.855,1.82E+08
35319,-30.659,-4.5372,-39.323,1.23E+08
35320,-26.026,-6.2083,-40.186,2.20E+08
35321,-26.333,-4.7091,-36.125,2.09E+08
35322,-29.861,-6.3789,-37.233,1.45E+08
35323,-31.396,-4.42,-37.705,1.28E+08
35324,-28.566,-6.0047,-35.012,1.63E+08
35325,-27.63,-9.7087,-44.822,1.08E+08
35326,-29.509,-9.0374,-43.537,7.11E+07
35327,-31.116,-9.2984,-46.789,3.07E+07
35328,-31.521,-9.4634,-44.597,4.27E+07
35329,-43.566,-7.8909,-19.535,4.95E+07
35330,-43.013,-10.296,-17.648,7.86E+07
35331,-42.077,-10.123,-20.204,6.80E+07
35332,-43.414,-9.3288,-21.804,4.59E+07
35333,-38.914,-4.6402,-20.251,8.33E+07
35334,-41.654,-7.0335,-18.025,9.09E+07
35335,-40.946,-4.1424,-17.73,7.26E+07
35336,-40.718,-6.8597,-20.581,8.43E+07
35337,-39.47,-5.8628,-22.332,8.35E+07
35338,-42.055,-6.0658,-22.181,6.22E+07
35339,-40.146,-5.8363,-17.971,8.80E+07
35340,44.239,-24.364,-1.1946,1.18E+08
35341,-27.81,-4.9208,-26.713,1.63E+08
35342,-29.355,-4.1146,-25.242,1.47E+08
35343,-27.869,-4.2646,-29.422,1.88E+08
35344,-29.176,-7.1924,-27.935,1.76E+08
35345,-31.577,-4.1834,-26.705,1.42E+08
35346,-30.522,-4.3623,-30.71,1.50E+08
35347,-32.876,-4.3589,-28.497,1.30E+08
35348,-31.598,-6.6089,-30.109,1.38E+08
35349,-27.801,-6.0976,-28.263,1.78E+08
35350,-30.537,-5.8111,-26.147,1.51E+08
35351,-31.278,-6.6426,-27.71,1.51E+08
35352,-29.342,-6.0481,-30.047,1.69E+08
35353,-17.956,10.774,-58.753,1.35E+08
35354,-18.961,11.495,-58.679,1.06E+08
35355,-37.653,-4.1546,-18.069,9.13E+07
35356,-32.162,-4.0772,-21.403,1.20E+08
35357,-33.783,-3.9397,-18.727,9.99E+07
35358,-35.766,-7.2715,-19.051,1.28E+08
35359,-33.252,-5.9454,-19.609,1.15E+08
35360,-34.502,-7.2636,-21.307,1.34E+08
35361,-34.383,-4.146,-22.865,1.15E+08
35362,-37.425,-6.872,-20.92,1.03E+08
35363,-35.508,-4.3082,-18.177,9.91E+07
35364,-33.344,-5.7737,-22.307,1.26E+08
35365,-36.176,-5.8751,-22.671,1.07E+08
35366,-36.853,-5.8486,-18.31,1.07E+08
35367,-25.596,-6.9186,-43.252,1.91E+08
35368,-23.335,-3.1128,-42.075,3.09E+08
35369,-24.044,-3.5557,-40.322,2.55E+08
35370,-27.475,-6.2473,-41.968,1.57E+08
35371,-24.335,-5.8863,-42.37,2.31E+08
35372,-24.751,-10.454,-44.1,2.05E+08
35373,-27.998,-9.1694,-42.654,1.33E+08
35374,-26.311,-9.3728,-40.724,1.55E+08
35375,-24.858,-8.8084,-43.055,2.07E+08
35376,-41.677,-10.281,-15.862,1.16E+08
35377,-40.393,-6.5479,-15.843,9.78E+07
35378,-40.445,-10.5,-13.704,1.79E+08
35379,-38.506,-9.6647,-16.825,1.32E+08
35380,-40.165,-9.2652,-18.695,1.08E+08
35381,-39.593,-8.2418,-16.084,1.13E+08
35382,-38.699,-3.2017,-13.081,7.60E+07
35383,-38.222,-4.7563,-14.168,9.22E+07
35384,-37.54,-3.8104,-15.656,8.41E+07
35385,-38.886,-5.3507,-15.789,9.63E+07
35386,-22.003,-11.016,-30.996,2.35E+08
35387,-20.172,-12.611,-32.133,2.29E+08
35388,-19.601,-12.45,-34.716,2.12E+08
35389,-20.309,-9.6004,-32.305,2.32E+08
35390,-20.97,-9.8589,-35.034,2.42E+08
35391,-18.852,-11.231,-33.188,2.08E+08
35392,-23.019,-10.224,-32.701,2.34E+08
35393,-23.691,-5.0853,-26.968,1.90E+08
35394,-27.159,-4.3081,-23.685,1.52E+08
35395,-25.672,-4.458,-27.865,1.91E+08
35396,-26.979,-7.3859,-26.378,1.82E+08
35397,-25.611,-8.3031,-25.331,1.86E+08
35398,-25.605,-6.2911,-26.706,1.84E+08
35399,-28.341,-6.0046,-24.59,1.57E+08
35400,-26.571,-7.0004,-23.674,1.62E+08
35401,-22.297,-7.8897,-28.734,2.17E+08
35402,-20.994,-12.319,-29.823,2.23E+08
35403,-22.868,-12.731,-28.356,2.38E+08
35404,-25.585,-10.19,-28.144,2.11E+08
35405,-21.131,-9.3074,-29.996,2.23E+08
35406,-24.217,-11.107,-27.097,2.18E+08
35407,-24.211,-9.0954,-28.471,2.11E+08
35408,-23.842,-9.9314,-30.391,2.23E+08
35409,-20.491,-4.3114,-31.74,2.57E+08
35410,-23.749,-4.4291,-29.678,2.14E+08
35411,-20.603,-6.4741,-30.043,2.15E+08
35412,-23.682,-6.2621,-28.518,2.06E+08
35413,-22.99,-4.917,-31.416,2.33E+08
35414,-19.528,-4.0303,-29.741,2.09E+08
35415,-23.313,-7.0981,-30.438,2.19E+08
35416,-26.85,-12.655,-24.148,2.17E+08
35417,-29.301,-14.846,-20.546,2.22E+08
35418,-26.565,-15.131,-23.474,2.24E+08
35419,-27.81,-11.352,-22.491,1.90E+08
35420,-29.16,-12.418,-23.517,2.13E+08
35421,-29.07,-12.657,-21.469,2.02E+08
35422,-30.325,-3.3644,-19.54,1.15E+08
35423,-29.794,-5.3701,-20.422,1.28E+08
35424,-30.925,-3.5707,-23.677,1.30E+08
35425,-29.886,-5.1984,-23.12,1.40E+08
35426,-28.116,-6.1942,-22.203,1.44E+08
35427,-19.586,-12,-38.481,1.69E+08
35428,-22.374,-9.0925,-41.505,2.11E+08
35429,-19.558,-8.1694,-41.231,1.77E+08
35430,-20.956,-9.4089,-38.799,2.11E+08
35431,-19.003,-10.277,-40.83,1.42E+08
35432,-21.257,-10.857,-42.093,1.91E+08
35433,-35.696,-3.1004,-11.261,6.61E+07
35434,-36.85,-2.7289,-8.5855,5.86E+07
35435,-36.357,-4.9585,-10.113,8.61E+07
35436,-37.235,-4.3012,-11.702,8.87E+07
35437,-36.553,-3.3553,-13.189,8.11E+07
35438,-37.317,-12.93,-10.585,2.21E+08
35439,-36.534,-9.4171,-12.608,1.56E+08
35440,-37.851,-10.725,-14.39,1.87E+08
35441,-37.395,-9.3653,-10.44,1.60E+08
35442,-38.047,-11.183,-9.875,2.02E+08
35443,-38.274,-8.708,-12.029,1.64E+08
35444,-36.592,-11.402,-12.016,1.78E+08
35445,-38.937,-9.3024,-13.649,1.69E+08
35446,-32.249,-13.578,-15.38,1.88E+08
35447,-32.598,-9.4928,-15.41,1.41E+08
35448,-33.915,-10.801,-17.192,1.61E+08
35449,-31.4,-9.4749,-17.75,1.47E+08
35450,-32.65,-10.793,-19.448,1.65E+08
35451,-31.214,-13.793,-17.587,1.97E+08
35452,-32.656,-11.478,-14.818,1.62E+08
35453,-30.983,-11.604,-18.51,1.75E+08
35454,-32.813,-3.3405,-14.386,7.86E+07
35455,-32.613,-5.2505,-15.406,9.83E+07
35456,-31.414,-5.2326,-17.746,1.09E+08
35457,-33.67,-3.5954,-16.314,9.26E+07
35458,-19.901,-1.9604,-40.457,3.65E+08
35459,-22.306,-2.672,-39.83,4.06E+08
35460,-22.597,-5.0026,-41.878,3.57E+08
35461,-19.781,-4.0795,-41.604,2.94E+08
35462,-21.179,-5.319,-39.173,3.31E+08
35463,-19.576,-3.9188,-39.799,3.12E+08
35464,-19.879,-2.6224,-41.985,3.16E+08
35465,-21.224,-1.8126,-41.874,5.69E+08
35466,-23.49,-9.4219,-43.218,2.43E+08
35467,-22.372,-11.186,-43.806,2.06E+08
35468,-33.713,-14.873,-11.895,2.18E+08
35469,-33.255,-17.245,-11.947,2.13E+08
35470,-31.546,-15.659,-16.095,2.14E+08
35471,-32.44,-17.605,-13.798,2.03E+08
35472,-32.989,-13.345,-13.326,1.79E+08
35473,-17.64,-0.77327,-41.279,3.47E+08
35474,-16.211,-2.7136,-38.05,2.59E+08
35475,-18.709,-2.6291,-37.016,3.25E+08
35476,-20.61,-2.4033,-38.704,3.32E+08
35477,-18.084,-3.8109,-40.478,2.59E+08
35478,-17.88,-3.6501,-38.672,2.87E+08
35479,-18.591,-0.69143,-40.657,4.22E+08
35480,-17.04,-2.557,-39.848,2.51E+08
35481,-18.183,-2.3537,-40.859,2.70E+08
35482,-19.528,-1.5439,-40.748,4.78E+08
35483,-34.835,-3.0827,-9.2322,5.39E+07
35484,-33.481,-5.3641,-12.928,8.61E+07
35485,-34.342,-5.3124,-10.76,8.13E+07
35486,-35.22,-4.6551,-12.348,8.30E+07
35487,-34.538,-3.7091,-13.836,7.78E+07
35488,-18.577,-16.135,-31.6,1.96E+08
35489,-18.592,-13.753,-33.542,1.99E+08
35490,-20.134,-15.985,-29.459,2.26E+08
35491,-21.037,-14.327,-29.493,2.39E+08
35492,-19.3,-10.903,-31.132,2.16E+08
35493,-17.844,-12.534,-32.014,2.00E+08
35494,-16.655,-15.589,-32.169,1.79E+08
35495,-12.903,-4.972,-33.43,1.31E+08
35496,-14.948,-4.7543,-34.948,1.77E+08
35497,-17.446,-4.6698,-33.913,2.42E+08
35498,-13.984,-7.1122,-33.534,1.50E+08
35499,-17.558,-6.8325,-32.215,2.03E+08
35500,-18.219,-7.0911,-34.944,2.13E+08
35501,-15.507,-7.5752,-34.91,1.63E+08
35502,-16.617,-5.6909,-35.57,2.04E+08
35503,-16.101,-8.4634,-33.098,1.80E+08
35504,-16.483,-4.3887,-31.914,1.94E+08
35505,-17.485,1.5411,-43.266,3.01E+08
35506,-16.659,-1.1761,-45.172,3.71E+08
35507,-14.779,-0.92538,-42.299,2.67E+08
35508,-15.306,2.1602,-44.157,2.93E+08
35509,-14.228,0.17016,-43.781,3.15E+08
35510,-16.006,-1.8449,-43.361,2.92E+08
35511,-18.026,0.22707,-42.605,4.59E+08
35512,-17.302,2.0115,-44.871,3.20E+08
35513,-16.475,-1.6385,-41.796,2.68E+08
35514,-17.618,-1.4352,-42.807,2.96E+08
35515,-8.3129,-12.141,-47.486,1.53E+08
35516,-5.4873,-10.935,-45.416,1.49E+08
35517,-7.7928,-12.228,-44.911,1.37E+08
35518,-6.3898,-10.522,-47.649,1.61E+08
35519,-6.6879,-8.8553,-45.584,1.46E+08
35520,-8.7162,-9.5649,-47.511,1.67E+08
35521,-10.351,-11.35,-45.535,1.37E+08
35522,-8.1642,-10.483,-44.61,1.33E+08
35523,-35.88,-5.0596,-5.3429,8.70E+07
35524,-35.58,-3.2648,-3.9219,6.45E+07
35525,-35.495,-4.9408,-8.084,7.75E+07
35526,-34.387,-16.673,-9.953,2.27E+08
35527,-35.399,-13.779,-7.524,2.30E+08
35528,-35.575,-12.553,-9.1912,2.06E+08
35529,-34.12,-12.772,-11.332,1.89E+08
35530,-21.589,-21.807,-27.671,1.91E+08
35531,-22.449,-19.402,-26.753,2.15E+08
35532,-25.742,-21.024,-23.732,1.98E+08
35533,-24.417,-18.596,-24.853,2.13E+08
35534,-24.767,-22.761,-24.956,1.87E+08
35535,-16.976,5.7365,-43.73,1.59E+08
35536,-15.715,3.556,-44.197,2.22E+08
35537,-17.711,3.4074,-44.911,2.59E+08
35538,-19.255,0.74192,-41.457,6.11E+08
35539,-18.213,-16.608,-43.986,4.45E+07
35540,-18.686,-16.971,-45.492,4.78E+07
35541,-18.806,-17.092,-46.527,5.12E+07
35542,-18.687,-14.445,-45.114,9.36E+07
35543,-17.628,-15.88,-45.656,6.81E+07
35544,-18.163,-15.623,-46.792,9.24E+07
35545,-15.505,-17.043,-43.445,4.62E+07
35546,-11.577,-16.524,-45.785,9.51E+07
35547,-13.827,-16.158,-46.726,9.62E+07
35548,-14.92,-16.315,-45.115,7.38E+07
35549,-14.144,-15.396,-42.447,6.19E+07
35550,-13.412,-14.221,-44.754,9.89E+07
35551,-12.159,-17.46,-44.585,8.47E+07
35552,-11.733,-16.214,-43.64,7.57E+07
35553,-8.9079,-6.1707,-34.462,7.42E+07
35554,-6.3672,-6.1773,-35.239,5.82E+07
35555,-9.9896,-8.3108,-34.566,9.66E+07
35556,-5.1255,-8.374,-35.708,6.43E+07
35557,-8.4616,-6.3957,-36.554,7.71E+07
35558,-7.3667,-10.326,-36.846,7.64E+07
35559,-6.845,-8.3084,-37.716,7.14E+07
35560,-9.2746,-9.1267,-36.758,7.68E+07
35561,-8.553,-10.002,-34.713,8.97E+07
35562,-35.471,-5.6133,-2.7086,1.06E+08
35563,-35.862,-10.333,-4.6382,1.79E+08
35564,-35.386,-7.2893,-6.8707,1.13E+08
35565,-36.037,-9.1069,-6.3054,1.53E+08
35566,-35.471,-9.4261,-3.0028,1.62E+08
35567,-30.605,-18.091,-18.172,2.16E+08
35568,-31.498,-20.037,-15.875,2.04E+08
35569,-29.194,-20.804,-19.98,2.02E+08
35570,-31.699,-22.117,-16.042,2.02E+08
35571,-29.61,-23.142,-19.153,1.83E+08
35572,-17.227,-18.048,-34.863,1.46E+08
35573,-18.687,-20.611,-31.018,1.78E+08
35574,-18.006,-15.974,-34.182,1.70E+08
35575,-16.411,-19.423,-32.763,1.57E+08
35576,-19.548,-18.206,-30.099,2.02E+08
35577,-16.069,-17.811,-32.809,1.58E+08
35578,-17.952,-20.032,-32.484,1.68E+08
35579,-17.015,-17.48,-39.823,8.10E+07
35580,-18.345,-17.648,-41.223,5.59E+07
35581,-18.04,-17.584,-43.667,3.48E+07
35582,-18.041,-15.057,-43.288,7.67E+07
35583,-16.982,-16.492,-43.83,4.85E+07
35584,-16.206,-15.574,-41.163,6.45E+07
35585,-18.144,-16.594,-40.183,8.87E+07
35586,-34.051,-19.7,-7.047,2.15E+08
35587,-33.113,-19.405,-11.856,2.11E+08
35588,-33.747,-20.933,-9.8679,2.06E+08
35589,-7.5867,-4.1774,-34.511,5.88E+07
35590,-12.173,-3.9531,-35.251,1.23E+08
35591,-11.209,-6.3109,-33.838,9.95E+07
35592,-9.6811,-4.3958,-35.826,7.83E+07
35593,-17.793,-17.907,-38.885,8.69E+07
35594,-17.242,-15.665,-36.805,1.47E+08
35595,-15.647,-19.114,-35.386,1.24E+08
35596,-14.75,-15.584,-35.985,1.20E+08
35597,-14.525,-17.343,-37.866,1.03E+08
35598,-15.654,-15.833,-38.825,9.95E+07
35599,-15.305,-17.502,-35.432,1.26E+08
35600,-17.592,-16.853,-37.845,1.21E+08
35601,-9.5084,-14.67,-47.762,1.31E+08
35602,-9.8849,-14.253,-50.744,1.33E+08
35603,-11.759,-14.304,-48.702,1.33E+08
35604,-8.7861,-13.245,-46.107,1.38E+08
35605,-7.383,-11.539,-48.845,1.61E+08
35606,-9.5604,-12.565,-50.476,1.47E+08
35607,-9.7094,-10.582,-48.707,1.66E+08
35608,-11.344,-12.367,-46.731,1.38E+08
35609,-11.311,-11.857,-49.573,1.57E+08
35610,-9.1747,-15.236,-50.341,1.10E+08
35611,-13.745,-2.1644,-53.687,2.15E+08
35612,-15.601,-3.8715,-51.397,2.20E+08
35613,-15.088,1.4074,-50.364,2.53E+08
35614,-15.6,-1.6907,-49.125,3.05E+08
35615,-12.537,-1.9167,-51.558,2.28E+08
35616,-13.123,0.18511,-50.144,2.52E+08
35617,-13.945,1.4321,-52.177,2.48E+08
35618,-13.533,-2.2336,-49.329,2.42E+08
35619,-15.85,0.91159,-52.062,2.42E+08
35620,-16.213,-1.3802,-52.415,2.27E+08
35621,-13.932,-0.19994,-52.602,2.40E+08
35622,-35.289,-3.0527,0.89134,1.25E+08
35623,-34.947,-5.0393,1.1718,1.38E+08
35624,-35.608,-14.547,-3.4718,2.43E+08
35625,-36.129,-12.031,-6.8141,2.04E+08
35626,-35.563,-12.351,-3.5115,2.11E+08
35627,-19.879,-24.914,-29.284,1.62E+08
35628,-20.244,-20.46,-28.877,2.04E+08
35629,-16.177,-23.611,-31.021,1.50E+08
35630,-18.649,-22.286,-31.262,1.69E+08
35631,-9.1188,-16.998,-45.066,1.13E+08
35632,-9.0475,-17.303,-46.292,1.25E+08
35633,-10.087,-15.765,-49.823,1.11E+08
35634,-11.961,-15.816,-47.782,1.12E+08
35635,-8.9882,-14.757,-45.186,1.14E+08
35636,-11.546,-13.879,-45.81,1.11E+08
35637,-10.293,-17.118,-45.641,1.06E+08
35638,-9.3768,-16.749,-49.421,9.54E+07
35639,-9.8668,-15.872,-44.696,9.61E+07
35640,-6.8764,-16.013,-40.441,9.91E+07
35641,-4.2081,-16.378,-40.704,1.13E+08
35642,-5.5557,-16.483,-41.364,1.25E+08
35643,-4.1221,-12.816,-42.96,1.29E+08
35644,-6.4276,-14.109,-42.454,1.18E+08
35645,-2.3018,-13.761,-40.512,1.06E+08
35646,-5.8615,-15.354,-41.817,1.16E+08
35647,-5.8171,-13.683,-39.94,9.35E+07
35648,-5.2955,-11.666,-40.81,9.71E+07
35649,-9.3287,-19.023,-36.964,1.00E+08
35650,-8.8453,-17.477,-41.398,9.47E+07
35651,-6.3601,-18.266,-37.752,1.00E+08
35652,-6.4952,-17.506,-39.768,9.45E+07
35653,-6.3555,-15.716,-37.457,8.55E+07
35654,-7.8428,-17.611,-40.428,1.12E+08
35655,-8.8324,-16.094,-37.516,8.92E+07
35656,-10.875,-17.044,-38.876,8.82E+07
35657,-8.1486,-16.482,-40.881,1.07E+08
35658,-8.1042,-14.811,-39.003,8.62E+07
35659,-10.035,-15.054,-40.378,8.27E+07
35660,-9.5933,-16.352,-41.028,8.62E+07
35661,-1.9637,-3.8382,-36.428,4.63E+07
35662,-3.8042,-6.3807,-35.758,4.94E+07
35663,-7.1404,-4.4024,-36.603,6.58E+07
35664,-4.1155,-4.1025,-37.36,5.81E+07
35665,-5.5238,-6.3152,-37.766,6.07E+07
35666,-18.922,-17.022,-39.245,9.92E+07
35667,-6.5253,-20.147,-35.211,1.20E+08
35668,-6.4763,-22.419,-35.174,1.24E+08
35669,-12.163,-20.697,-33.855,1.33E+08
35670,-8.9976,-17.976,-34.976,1.10E+08
35671,-8.3897,-23.294,-34.298,1.24E+08
35672,-11.232,-22.631,-33.335,1.27E+08
35673,-11.04,-18.925,-36.336,1.04E+08
35674,-11.821,-19.085,-33.901,1.33E+08
35675,-8.4558,-18.118,-44.517,1.26E+08
35676,-7.5246,-17.947,-42.321,1.24E+08
35677,-7.8304,-16.818,-42.774,1.14E+08
35678,-9.701,-17.934,-43.866,1.04E+08
35679,-9.2751,-16.688,-42.921,9.24E+07
35680,-6.7328,-7.8329,-55.207,1.74E+08
35681,-7.6686,-3.5823,-55.1,2.18E+08
35682,-10.652,-4.9023,-55.412,1.79E+08
35683,-9.2927,-9.1657,-53.426,1.46E+08
35684,-7.5504,-5.6818,-55.922,2.01E+08
35685,-9.4441,-4.6546,-53.283,1.91E+08
35686,-11.135,-7.0682,-54.698,1.53E+08
35687,-7.2147,-5.5473,-53.053,1.83E+08
35688,-9.4418,-7.183,-51.657,1.69E+08
35689,-5.3715,5.7073,-46.265,2.30E+08
35690,-6.6858,4.2899,-46.725,2.35E+08
35691,-7.1776,5.8198,-48.82,2.53E+08
35692,-4.5872,4.0461,-46.357,2.29E+08
35693,-4.1074,4.3531,-50.29,2.96E+08
35694,-5.9501,1.8964,-47.177,2.28E+08
35695,-5.7377,3.7295,-49.336,2.64E+08
35696,-2.7162,3.9387,-48.419,2.49E+08
35697,-3.665,2.323,-47.765,2.25E+08
35698,-35.059,-2.2168,5.3496,1.95E+08
35699,-35.063,-4.2735,3.3507,1.64E+08
35700,-13.352,8.7085,-44.696,1.58E+08
35701,-14.797,6.3556,-44.621,1.48E+08
35702,-14.746,10.993,-44.913,1.39E+08
35703,-15.768,8.6869,-46.459,1.58E+08
35704,-16.793,6.207,-45.335,1.83E+08
35705,-16.802,10.083,-43.769,1.50E+08
35706,-18.633,-18.068,-46.207,3.61E+07
35707,-17.455,-16.855,-45.336,5.34E+07
35708,-17.576,-16.977,-46.37,5.66E+07
35709,-18.111,-16.72,-47.506,8.38E+07
35710,-18.537,-17.74,-48.661,5.01E+07
35711,-9.6296,-18.239,-45.092,1.18E+08
35712,-8.7138,-17.869,-48.871,1.06E+08
35713,-11.879,-13.307,-53.91,1.12E+08
35714,-11.115,-12.772,-56.007,1.06E+08
35715,-15.543,-11.327,-55.861,9.17E+07
35716,-14.77,-9.0629,-53.338,1.50E+08
35717,-11.554,-11.619,-53.643,1.27E+08
35718,-13.397,-9.5217,-54.914,1.29E+08
35719,-13.305,-10.911,-52.74,1.44E+08
35720,-14.576,-12.295,-53.603,1.18E+08
35721,-16.831,-2.6043,-57.222,1.55E+08
35722,-16.94,2.0359,-57.86,1.82E+08
35723,-14.813,-1.8498,-56.97,1.78E+08
35724,-14.257,0.68393,-57.507,2.13E+08
35725,-16.919,1.2262,-55.345,2.01E+08
35726,-17.281,-1.0656,-55.697,1.86E+08
35727,-15,0.11466,-55.885,2.01E+08
35728,-5.7719,4.7564,-55.304,3.47E+08
35729,-9.6913,8.5942,-53.98,2.60E+08
35730,-8.9185,6.5036,-51.766,2.93E+08
35731,-7.8058,5.7922,-56.04,3.65E+08
35732,-9.8152,3.8932,-55.665,2.92E+08
35733,-5.8484,5.037,-53.237,3.20E+08
35734,-10.636,6.5213,-55.476,2.88E+08
35735,-10.571,4.956,-53.617,2.85E+08
35736,-7.4787,4.4133,-52.282,2.94E+08
35737,-11.207,6.6985,-53.268,2.70E+08
35738,-8.3703,4.2788,-53.785,3.00E+08
35739,-35.076,-18.041,-0.64401,2.50E+08
35740,-35.041,-15.623,0.44971,2.50E+08
35741,-34.717,-18.096,-2.9429,2.34E+08
35742,-35.217,-13.64,-1.8364,2.26E+08
35743,-21.995,-27.374,-27.165,1.44E+08
35744,-24.677,-26.279,-24.961,1.57E+08
35745,-18.875,-28.51,-29.801,1.22E+08
35746,-9.6996,-14.812,-54.902,1.06E+08
35747,-12.337,-15.399,-50.764,1.12E+08
35748,-10.139,-13.66,-52.538,1.26E+08
35749,-11.89,-12.952,-51.635,1.37E+08
35750,-13.16,-14.335,-52.498,1.09E+08
35751,-9.7534,-16.331,-52.403,9.22E+07
35752,-9.7616,-13.894,-53.136,1.21E+08
35753,4.5127,-10.358,-35.416,8.20E+07
35754,1.5093,-13.686,-35.644,9.09E+07
35755,-0.8641,-12.8,-35.417,8.20E+07
35756,2.0418,-9.2526,-36.002,7.00E+07
35757,0.90247,-11.973,-37.536,8.83E+07
35758,3.3418,-12.468,-35.829,8.79E+07
35759,-0.37164,-9.9429,-35.825,6.59E+07
35760,2.9166,-10.54,-37.65,8.90E+07
35761,2.6772,-2.1819,-39.969,9.03E+07
35762,4.2042,-3.8474,-37.033,6.82E+07
35763,0.52375,-2.3075,-40.17,8.74E+07
35764,1.6914,-5.3445,-37.074,5.90E+07
35765,3.256,-3.7399,-38.436,7.31E+07
35766,-0.72202,-6.0349,-36.897,5.56E+07
35767,-1.0333,-3.7566,-38.499,6.74E+07
35768,2.74E-02,-5.0969,-39.839,7.90E+07
35769,2.1614,-4.8058,-39.902,8.17E+07
35770,2.6747,-3.6151,-35.974,5.43E+07
35771,-2.4696,-9.37,-56.146,1.84E+08
35772,-3.7545,-9.2261,-53.915,1.77E+08
35773,-7.2547,-10.639,-54.051,1.46E+08
35774,-5.5123,-7.155,-56.547,2.05E+08
35775,-3.1085,-6.9309,-55.5,2.10E+08
35776,-5.1766,-7.0205,-53.678,1.85E+08
35777,-5.1526,-10.579,-56.729,1.62E+08
35778,-6.8772,-10.873,-54.649,1.41E+08
35779,2.2591,1.3452,-43.268,1.53E+08
35780,3.2931,4.0471,-44.45,1.82E+08
35781,0.10567,1.2195,-43.469,1.55E+08
35782,-2.0823,3.4289,-44.38,1.78E+08
35783,2.1913,1.7702,-45.624,1.89E+08
35784,1.6371,4.3656,-45.818,2.38E+08
35785,-0.21127,3.3215,-46.441,2.21E+08
35786,-1.1601,1.7058,-45.787,1.87E+08
35787,-11.462,10.667,-47.642,1.89E+08
35788,-13.085,13.706,-52.446,1.64E+08
35789,-12.485,15.437,-49.467,1.54E+08
35790,-11.726,11.739,-51.998,2.07E+08
35791,-10.954,9.6485,-49.784,2.04E+08
35792,-12.857,12.952,-47.859,1.70E+08
35793,-13.879,10.646,-49.406,1.86E+08
35794,-14.004,14.353,-49.6,1.65E+08
35795,-13.65,11.421,-52.065,1.89E+08
35796,-13.242,9.8434,-51.286,1.92E+08
35797,-8.3302,7.7496,-44.823,1.87E+08
35798,-9.6446,6.3322,-45.284,1.86E+08
35799,-10.136,7.862,-47.378,2.15E+08
35800,-12.091,6.5279,-45.162,1.85E+08
35801,-12.04,11.166,-45.454,1.68E+08
35802,-13.062,8.8591,-47,1.93E+08
35803,-17.368,9.8312,-55.07,2.01E+08
35804,-16.576,9.3583,-50.492,2.05E+08
35805,-16.346,10.133,-53.151,2.07E+08
35806,-15.938,8.5561,-52.371,2.14E+08
35807,-17.333,8.0426,-53.541,2.08E+08
35808,-34.855,-17.827,1.6024,2.43E+08
35809,-34.531,-20.3,-1.7902,2.27E+08
35810,-34.867,-21.826,2.7983,2.31E+08
35811,-34.963,-22.89,0.30693,2.23E+08
35812,-33.603,-28.988,-9.9906,1.57E+08
35813,-34.429,-29.205,-7.4158,1.64E+08
35814,-33.94,-24.88,-9.0023,1.85E+08
35815,-34.675,-15.566,5.1636,2.45E+08
35816,-34.843,-13.061,2.7693,2.22E+08
35817,-28.533,-31.275,-20.568,1.25E+08
35818,-29.151,-28.326,-19.578,1.45E+08
35819,-14.204,17.037,-46.753,1.53E+08
35820,-15.474,17.941,-44.967,1.40E+08
35821,-14.576,14.552,-45.146,1.64E+08
35822,-15.723,15.953,-46.886,1.58E+08
35823,-16.632,13.642,-44.002,1.73E+08
35824,-3.5077,-21.662,-35.961,1.22E+08
35825,-1.4462,-18.504,-38.302,1.05E+08
35826,-0.91256,-20.258,-35.981,1.26E+08
35827,-1.1787,-17.727,-35.931,1.12E+08
35828,-3.6918,-18.63,-38.014,1.15E+08
35829,-3.5521,-16.841,-35.704,1.05E+08
35830,-6.029,-17.219,-35.763,1.05E+08
35831,-17.16,-6.1651,-57.503,1.15E+08
35832,-14.55,-4.1994,-56.495,1.60E+08
35833,-16.406,-5.9065,-54.204,1.59E+08
35834,-15.033,-6.3652,-55.78,1.34E+08
35835,-17.018,-3.4152,-55.223,1.65E+08
35836,-0.53096,3.1861,-54.555,3.52E+08
35837,-1.5088,3.4812,-57.381,4.45E+08
35838,-4.9504,1.272,-56.107,3.33E+08
35839,-5.3682,4.3846,-57.332,3.95E+08
35840,-1.6251,1.4644,-56.91,3.69E+08
35841,-3.4108,3.6294,-54.529,3.64E+08
35842,-3.6239,1.1193,-57.232,3.61E+08
35843,-2.567,1.4429,-54.691,3.25E+08
35844,-5.9327,2.8713,-55.077,3.30E+08
35845,-7.3297,5.201,-44.87,2.09E+08
35846,-7.8214,6.7309,-46.965,2.34E+08
35847,-5.2311,4.9572,-44.502,1.93E+08
35848,-34.864,-2.1899,9.9681,2.60E+08
35849,-34.676,-4.124,8.2431,2.24E+08
35850,-34.717,-4.2033,5.6301,1.94E+08
35851,-27.904,-28.924,-21.253,1.38E+08
35852,-17.749,-13.58,-55.171,6.49E+07
35853,-16.781,-14.548,-52.914,9.09E+07
35854,-18.013,-16.532,-51.859,5.98E+07
35855,-13.792,-26.078,-32.159,1.18E+08
35856,-15.995,-28.928,-31.451,1.03E+08
35857,-9.3752,-13.124,-54.634,1.16E+08
35858,-7.2731,-13.065,-57.312,1.22E+08
35859,-8.9977,-13.359,-55.232,1.13E+08
35860,-17.773,-9.3818,-57.482,8.42E+07
35861,-17.019,-9.1232,-54.183,1.28E+08
35862,-15.645,-9.582,-55.76,1.02E+08
35863,-16.825,-12.355,-54.449,9.15E+07
35864,1.7665,-9.8488,-56.678,1.93E+08
35865,1.2839,-7.8172,-56.612,2.21E+08
35866,-1.5294,-9.2901,-54.229,1.81E+08
35867,0.81418,-8.9214,-54.716,1.87E+08
35868,-0.88343,-6.9948,-55.814,2.17E+08
35869,-16.924,7.055,-57.972,1.83E+08
35870,-17.538,6.6269,-59.264,1.44E+08
35871,-14.103,2.9745,-57.67,2.17E+08
35872,-14.924,5.6026,-57.482,2.14E+08
35873,-14.859,4.0373,-55.623,2.14E+08
35874,-16.764,3.5168,-55.508,2.08E+08
35875,-16.889,5.2663,-56.444,1.95E+08
35876,-14.845,2.4053,-56.048,2.05E+08
35877,-13.291,16.69,-51.865,1.40E+08
35878,-13.291,13.355,-56.466,1.49E+08
35879,-12.733,15.684,-56.971,1.28E+08
35880,-14.763,14.455,-57.232,1.26E+08
35881,-14.408,16.893,-57.12,1.08E+08
35882,-12.532,12.991,-54.395,1.80E+08
35883,-12.859,16.822,-54.733,1.27E+08
35884,-14.81,15.606,-51.997,1.46E+08
35885,-14.455,12.673,-54.463,1.63E+08
35886,-14.765,16.987,-53.503,1.19E+08
35887,-31.962,-33.61,-13.656,1.11E+08
35888,-33.718,-31.254,-9.1327,1.40E+08
35889,-33.138,-33.401,-12.094,1.27E+08
35890,-33.325,-33.545,-10.176,1.17E+08
35891,-31.61,-38.197,-14.548,7.90E+07
35892,-32.208,-35.974,-14.042,1.04E+08
35893,-0.86353,-22.529,-35.943,1.28E+08
35894,-3.3092,-26.986,-35.375,1.12E+08
35895,-0.22457,-24.877,-35.362,1.28E+08
35896,-5.3721,-24.809,-35.047,1.26E+08
35897,1.198,-19.371,-38.285,1.11E+08
35898,2.371,-17.777,-40.365,1.02E+08
35899,0.93189,-16.84,-38.235,9.76E+07
35900,-1.5813,-17.743,-40.318,1.03E+08
35901,0.32503,-15.127,-40.127,9.41E+07
35902,2.6935,-15.417,-41.029,1.07E+08
35903,3.0673,-16.638,-41.361,1.07E+08
35904,5.2698,1.8305,-43.553,1.68E+08
35905,6.0941,-0.75454,-42.571,1.49E+08
35906,2.0824,-0.99712,-42.572,1.29E+08
35907,4.8147,-2.4295,-40.837,1.10E+08
35908,4.1681,-0.44638,-44.727,1.62E+08
35909,3.2667,-2.6085,-44.044,1.39E+08
35910,3.7201,-3.4954,-42.304,1.22E+08
35911,5.2925,-2.9893,-43.536,1.37E+08
35912,1.2946,3.3184,-55.34,4.13E+08
35913,3.1356,3.3498,-54.472,3.86E+08
35914,5.1496,4.4158,-53.041,3.33E+08
35915,3.0977,0.60525,-54.282,3.18E+08
35916,1.1784,1.3017,-54.869,3.36E+08
35917,4.8225,4.6913,-50.703,2.86E+08
35918,-0.6074,3.4666,-52.488,3.16E+08
35919,3.1864,1.501,-49.799,2.59E+08
35920,5.0166,1.4004,-52.665,2.95E+08
35921,2.4514,-0.40056,-51.98,2.69E+08
35922,0.23639,1.2801,-52.65,2.91E+08
35923,2.6322,4.0964,-49.992,3.07E+08
35924,0.78381,3.0522,-50.616,2.91E+08
35925,5.0946,2.5154,-50.823,2.75E+08
35926,1.4234,0.56288,-50.701,2.60E+08
35927,2.1577,3.645,-57.298,4.68E+08
35928,0.20049,1.5968,-57.695,4.24E+08
35929,-11.81,20.484,-47.633,1.27E+08
35930,-13.961,19.325,-47.1,1.23E+08
35931,-13.123,20.365,-51.64,1.10E+08
35932,-11.338,21.439,-50.013,1.03E+08
35933,-13.775,20.589,-48.992,1.03E+08
35934,-12.259,18.554,-51.755,1.37E+08
35935,-13.063,15.936,-47.278,1.51E+08
35936,-14.21,17.337,-49.019,1.41E+08
35937,-14.165,18.719,-50.525,1.17E+08
35938,-14.877,10.768,-58.005,1.82E+08
35939,-16.349,11.868,-58.771,1.53E+08
35940,-17.678,9.3553,-59.212,1.53E+08
35941,-15.064,8.3311,-57.431,2.09E+08
35942,-16.042,10.086,-56.002,1.97E+08
35943,-17.029,7.9948,-56.392,1.96E+08
35944,-18.068,10.504,-57.847,1.48E+08
35945,-12.133,14.081,-58.594,1.23E+08
35946,-14.163,12.852,-58.855,1.42E+08
35947,-11.932,11.388,-56.018,2.05E+08
35948,-12.877,9.3154,-57.515,2.02E+08
35949,-13.856,11.07,-56.086,1.88E+08
35950,-34.447,-7.823,7.7875,2.12E+08
35951,-33.894,-9.8517,9.0126,2.01E+08
35952,-34.488,-7.9023,5.1745,1.92E+08
35953,-34.561,-10.128,4.7801,2.05E+08
35954,-34.644,-11.39,8.3205,2.31E+08
35955,2.9046,-19.531,-38.044,1.18E+08
35956,2.3706,-23.472,-35.382,1.28E+08
35957,3.8995,-21.953,-35.405,1.29E+08
35958,1.4655,-18.594,-35.914,1.17E+08
35959,3.7751,-20.037,-35.98,1.23E+08
35960,7.248,-6.8048,-35.953,8.56E+07
35961,4.7771,-5.6997,-36.539,7.26E+07
35962,9.0657,-3.8248,-36.713,1.03E+08
35963,9.0565,-5.0339,-35.255,9.29E+07
35964,6.3417,-4.095,-37.901,8.74E+07
35965,9.3091,-6.1501,-36.975,9.70E+07
35966,8.5367,-4.6969,-38.915,1.06E+08
35967,7.3878,-6.5564,-38.803,9.93E+07
35968,5.7604,-3.9702,-35.439,6.94E+07
35969,7.1281,1.9474,-43.753,1.84E+08
35970,6.8382,5.4459,-46.814,2.58E+08
35971,5.2021,2.2555,-45.909,1.98E+08
35972,8.6924,6.1217,-45.175,2.19E+08
35973,7.9892,3.4732,-44.984,2.11E+08
35974,4.6478,4.8509,-46.102,2.43E+08
35975,7.1103,3.2699,-46.933,2.28E+08
35976,-34.827,-4.1674,10.582,2.53E+08
35977,-35.341,-2.4953,14.657,2.92E+08
35978,-33.688,-3.7261,12.808,2.28E+08
35979,-34.086,-8.1302,10.082,2.07E+08
35980,-34.68,-6.1808,6.2442,1.99E+08
35981,-33.501,-5.6602,11.083,1.97E+08
35982,5.5034,-8.5953,-56.282,1.97E+08
35983,7.0767,-9.1963,-56.488,1.71E+08
35984,5.5761,-4.3699,-55.859,2.50E+08
35985,5.7535,-8.2287,-52.585,1.70E+08
35986,5.0208,-6.5638,-56.216,2.25E+08
35987,7.9345,-8.7038,-54.655,1.58E+08
35988,4.5511,-7.6679,-54.32,1.89E+08
35989,8.0464,-4.789,-55.839,2.30E+08
35990,7.1859,-6.1924,-54.261,1.91E+08
35991,9.2466,-6.6766,-55.738,1.84E+08
35992,-13.605,15.181,-59.359,1.05E+08
35993,-13.25,17.619,-59.248,9.99E+07
35994,-11.043,18.972,-59.028,9.43E+07
35995,-11.701,17.548,-56.861,1.25E+08
35996,-34.22,-9.4117,13.363,2.12E+08
35997,-33.492,-11.492,13.133,2.04E+08
35998,-32.947,-7.6889,12.308,1.79E+08
35999,-34.282,-11.697,10.615,2.26E+08
36000,-33.994,-17.887,8.7787,2.27E+08
36001,-34.181,-15.782,9.4685,2.38E+08
36002,-34.78,-14.479,8.7772,2.50E+08
36003,5.4006,-18.115,-40.975,9.24E+07
36004,2.6385,-17,-37.994,1.06E+08
36005,2.0316,-15.287,-39.886,1.03E+08
36006,4.9481,-18.443,-38.06,1.13E+08
36007,4.471,-15.783,-38.18,1.04E+08
36008,4.4001,-15.577,-40.789,1.17E+08
36009,4.7739,-16.799,-41.12,1.15E+08
36010,5.8524,-17.368,-39.381,1.06E+08
36011,5.3509,-10.865,-57.102,1.73E+08
36012,3.2949,-8.232,-56.829,2.25E+08
36013,2.8252,-9.3362,-54.933,1.90E+08
36014,6.0127,4.7424,-54.999,3.87E+08
36015,3.9608,0.93178,-56.24,3.74E+08
36016,2.0415,1.6282,-56.827,3.91E+08
36017,5.552,2.1744,-56.815,4.05E+08
36018,5.8797,1.727,-54.623,3.50E+08
36019,5.2198,4.4396,-57.414,4.77E+08
36020,-13.08,21.388,-45.846,9.89E+07
36021,-12.605,24.649,-47.096,7.28E+07
36022,-10.457,23.502,-48.76,9.56E+07
36023,-10.11,25.089,-46.585,8.09E+07
36024,-13.436,23.713,-45.874,7.11E+07
36025,-12.894,22.651,-47.739,8.28E+07
36026,-15.588,22.555,-45.34,7.88E+07
36027,-15.045,21.493,-47.205,8.43E+07
36028,-15.48,18.241,-47.232,1.26E+08
36029,-3.3195,-33.238,-34.951,7.29E+07
36030,-0.11687,-30.532,-34.779,9.62E+07
36031,-5.2226,-27.861,-34.499,1.11E+08
36032,-4.7986,-31.885,-34.645,8.28E+07
36033,4.5385,-24.301,-34.824,1.27E+08
36034,2.9678,-28.422,-34.766,1.12E+08
36035,5.046,-26.539,-34.497,1.22E+08
36036,8.9938,-21.5,-34.578,1.23E+08
36037,6.5749,-25.02,-34.52,1.23E+08
36038,5.943,-20.865,-35.421,1.22E+08
36039,-15.28,16.389,-59.509,9.20E+07
36040,-14.24,20.568,-56.895,7.48E+07
36041,-12.033,21.922,-56.675,7.19E+07
36042,-11.771,23.383,-52.767,6.89E+07
36043,-14.207,22.532,-51.746,6.58E+07
36044,-12.691,20.497,-54.508,9.95E+07
36045,-10.937,23.641,-55.47,5.17E+07
36046,-13.576,23.556,-56.167,5.41E+07
36047,-14.598,20.662,-53.279,8.00E+07
36048,-33.564,-5.2251,17.223,2.14E+08
36049,-36.475,-2.5309,19.235,2.83E+08
36050,-32.812,-3.4601,18.737,2.26E+08
36051,-35.287,-5.711,16.213,2.56E+08
36052,-35.332,-4.3858,18.673,2.51E+08
36053,-34.014,-3.9882,15.158,2.28E+08
36054,-33.645,-17.947,10.616,2.18E+08
36055,-34.15,-21.73,7.507,2.14E+08
36056,-32.371,-20.432,12.999,1.93E+08
36057,-33.325,-22.657,10.828,1.94E+08
36058,-34.25,-31.003,7.193,1.51E+08
36059,-35.111,-31.115,1.9132,1.61E+08
36060,-34.675,-34.093,4.2554,1.27E+08
36061,-34.451,-34.695,6.3024,1.24E+08
36062,7.3996,-17.817,-42.646,7.44E+07
36063,8.3405,-17.793,-44.7,5.50E+07
36064,9.7212,-17.246,-43.969,7.23E+07
36065,8.3829,-15.525,-43.457,9.35E+07
36066,9.1884,-16.657,-42.296,8.04E+07
36067,8.6592,-17.88,-42.451,7.21E+07
36068,8.4889,-16.525,-44.543,7.61E+07
36069,6.7728,-16.501,-42.791,9.49E+07
36070,12.444,-18.791,-36.117,1.06E+08
36071,10.997,-16.541,-36.561,1.01E+08
36072,11.563,-17.806,-38.031,9.60E+07
36073,13.989,-16.778,-39.995,8.91E+07
36074,12.568,-16.82,-35.543,1.05E+08
36075,11.635,-16.668,-39.525,9.33E+07
36076,15.127,-16.2,-38.239,9.51E+07
36077,13.848,-16.51,-36.891,9.89E+07
36078,12.201,-15.891,-37.793,9.95E+07
36079,14.912,-3.2581,-31.932,1.35E+08
36080,13.887,-5.5833,-32.77,1.20E+08
36081,14.109,-3.3915,-34.15,1.40E+08
36082,11.929,-4.443,-33.133,1.11E+08
36083,10.561,7.2224,-57.295,3.34E+08
36084,14.14,4.9186,-57.225,2.75E+08
36085,15.076,7.1684,-56.305,2.28E+08
36086,13.953,4.8844,-54.512,2.72E+08
36087,10.937,2.9008,-56.12,3.16E+08
36088,9.5991,5.5153,-54.928,3.46E+08
36089,9.1383,2.9473,-56.743,3.42E+08
36090,11.827,7.0198,-55.247,2.77E+08
36091,11.296,4.2576,-54.423,3.00E+08
36092,12.599,2.8407,-55.027,2.92E+08
36093,12.441,3.0362,-57.351,3.21E+08
36094,8.8061,5.2125,-57.342,4.20E+08
36095,-12.717,20.181,-59.177,6.96E+07
36096,-14.781,21.03,-60.151,5.70E+07
36097,-13.376,18.757,-57.01,1.00E+08
36098,-14.26,21.815,-58.669,5.63E+07
36099,-12.573,22.384,-59.931,5.53E+07
36100,-9.9502,23.992,-59.386,5.42E+07
36101,-11.168,20.111,-56.79,9.92E+07
36102,-9.414,23.255,-57.752,6.35E+07
36103,-12.053,23.169,-58.449,5.65E+07
36104,-12.133,25.605,-49.476,5.08E+07
36105,-11.786,27.192,-47.301,3.65E+07
36106,-15.004,28.602,-47.094,2.21E+07
36107,-15.112,25.816,-46.59,3.89E+07
36108,-14.57,24.754,-48.455,4.63E+07
36109,-30.709,-5.9279,18.953,1.72E+08
36110,-34.333,-9.6492,17.713,1.97E+08
36111,-30.976,-9.7584,18.384,1.75E+08
36112,-33.184,-8.1787,16.429,1.97E+08
36113,-29.515,-7.8678,19.699,1.71E+08
36114,-32.456,-10.259,16.198,1.90E+08
36115,-33.229,-6.8536,18.889,1.86E+08
36116,-31.748,-8.3138,19.995,1.83E+08
36117,-31.912,-6.4559,15.374,1.67E+08
36118,-23.554,-39.178,-26.457,5.43E+07
36119,-22.119,-40.945,-27.579,4.08E+07
36120,-10.321,-36.378,-33.04,6.01E+07
36121,-12.516,-39.865,-32.036,4.64E+07
36122,-7.8879,-39.768,-33.46,4.40E+07
36123,-9.6106,-40.86,-33.651,2.87E+07
36124,-0.542,-36.587,-34.876,5.47E+07
36125,-1.8241,-38.475,-34.63,4.76E+07
36126,-4.4652,-38.248,-34.516,4.46E+07
36127,-4.9584,-35.084,-34.769,5.89E+07
36128,2.6607,-33.881,-34.704,7.82E+07
36129,5.0042,-29.141,-34.463,1.07E+08
36130,5.1893,-31.215,-34.486,9.29E+07
36131,13.816,-19.093,-33.133,1.22E+08
36132,14.498,-21.127,-32.649,1.28E+08
36133,10.474,-17.97,-34.753,1.13E+08
36134,11.039,-19.235,-36.224,1.08E+08
36135,12.045,-18.249,-33.736,1.18E+08
36136,12.466,-22.284,-33.156,1.30E+08
36137,8.8694,-19.584,-35.153,1.17E+08
36138,13.324,-17.938,-35.084,1.09E+08
36139,8.5125,-17.133,-41.475,7.96E+07
36140,7.9833,-18.355,-41.63,7.13E+07
36141,6.0969,-16.976,-41.971,9.60E+07
36142,7.1755,-17.546,-40.231,8.65E+07
36143,13.026,1.2628,-43.71,1.86E+08
36144,14.76,0.27548,-43.106,2.08E+08
36145,10.305,-0.85471,-42.69,1.74E+08
36146,11.75,-2.2594,-39.768,1.50E+08
36147,15.06,-2.0894,-42.122,1.81E+08
36148,11.166,0.67113,-43.921,1.91E+08
36149,11.221,-3.1315,-41.97,1.54E+08
36150,13.319,-3.5479,-41.593,1.56E+08
36151,12.65,-0.61202,-45.574,2.01E+08
36152,14.358,-1.7972,-44.416,1.97E+08
36153,11.289,-2.2795,-44.428,1.76E+08
36154,12.997,-2.9859,-43.896,1.75E+08
36155,9.1785,-15.443,-47.982,8.11E+07
36156,8.9062,-13.409,-45.195,1.24E+08
36157,11.224,-13.263,-45.953,1.16E+08
36158,11.013,-12.469,-48.239,1.23E+08
36159,9.7512,-11.109,-45.994,1.29E+08
36160,9.2254,-12.891,-48.67,1.29E+08
36161,10.402,-14.444,-47.711,1.06E+08
36162,7.8776,-12.554,-46.211,1.39E+08
36163,9.0122,-14.408,-46.281,1.03E+08
36164,8.4911,-11.939,-47.634,1.29E+08
36165,12.199,15.314,-45.737,2.30E+08
36166,14.91,11.358,-46.705,2.22E+08
36167,15.93,11.075,-48.989,2.13E+08
36168,13.68,13.351,-48.923,1.94E+08
36169,14.214,14.286,-45.614,2.16E+08
36170,15.095,12.406,-44.83,2.46E+08
36171,12.258,11.515,-48.276,2.31E+08
36172,12.105,10.245,-45.855,2.32E+08
36173,12.97,15.379,-47.398,1.94E+08
36174,15.128,2.6101,-44.207,2.21E+08
36175,15.11,4.6828,-45.824,2.28E+08
36176,15.184,2.2677,-47.139,2.38E+08
36177,12.238,5.6542,-45.214,2.20E+08
36178,11.534,3.0058,-45.023,2.03E+08
36179,13.058,4.5125,-47.137,2.22E+08
36180,13.018,1.7226,-46.676,2.10E+08
36181,7.9621,-12.451,-56.923,1.54E+08
36182,7.782,-10.973,-55.475,1.41E+08
36183,-9.6386,26.045,-48.965,6.38E+07
36184,-12.423,23.607,-50.119,5.89E+07
36185,-9.1522,24.716,-53.844,6.38E+07
36186,-14.179,25.551,-60.878,2.41E+07
36187,-12.014,24.841,-60.36,2.83E+07
36188,-14.117,24.018,-59.423,3.61E+07
36189,-33.642,-14.333,13.132,2.21E+08
36190,-34.432,-14.538,10.615,2.41E+08
36191,9.6773,-14.212,-55.028,1.37E+08
36192,10.683,-11.9,-55.677,1.45E+08
36193,8.8199,-11.959,-55.09,1.44E+08
36194,14.466,9.1686,-57.312,2.43E+08
36195,11.194,10.926,-57.22,2.47E+08
36196,8.9887,7.5155,-55.935,3.50E+08
36197,11.217,9.0199,-56.255,2.94E+08
36198,8.1958,7.2127,-58.35,4.13E+08
36199,-37.99,-2.8163,23.754,2.36E+08
36200,-36.14,-4.1593,20.901,2.39E+08
36201,-35.741,-3.2835,22.972,2.34E+08
36202,16.393,-20.001,-31.473,1.30E+08
36203,18.11,-17.783,-30.91,1.23E+08
36204,17.632,-17.936,-33.305,1.10E+08
36205,13.94,-17.122,-32.559,1.20E+08
36206,16.506,-16.206,-31.684,1.23E+08
36207,15.22,-16.812,-33.908,1.12E+08
36208,18.848,-3.5664,-30.382,1.51E+08
36209,15.764,-5.8206,-32.447,1.35E+08
36210,15.986,-3.6288,-33.827,1.56E+08
36211,18.96,-3.9486,-33.053,1.66E+08
36212,17.408,-5.8151,-31.112,1.39E+08
36213,18.888,-0.77348,-44.158,2.19E+08
36214,16.844,3.6954,-45.22,2.47E+08
36215,16.918,1.2803,-46.534,2.59E+08
36216,17.162,-0.74216,-42.619,1.97E+08
36217,14.752,0.73524,-46.071,2.30E+08
36218,16.46,-0.44995,-44.913,2.22E+08
36219,13.285,16.82,-45.257,2.24E+08
36220,10.726,20.426,-46.288,1.92E+08
36221,12.879,19.559,-45.702,1.85E+08
36222,12.04,17.914,-47.04,2.17E+08
36223,20.388,-6.2824,-56.249,1.12E+08
36224,19.362,-5.0993,-54.8,1.50E+08
36225,18.776,-4.2442,-56.988,1.71E+08
36226,15.611,-4.7718,-56.602,1.87E+08
36227,14.756,-8.4985,-55.489,1.38E+08
36228,16.483,-9.306,-55.566,1.27E+08
36229,17.151,-5.0762,-55.104,1.68E+08
36230,18.561,-7.4588,-54.727,1.25E+08
36231,16.524,-7.2342,-54.006,1.39E+08
36232,14.51,-5.2722,-54.317,1.65E+08
36233,14.205,-6.53,-55.985,1.57E+08
36234,17.607,2.65,-57.744,2.59E+08
36235,17.42,2.6157,-55.031,2.69E+08
36236,19.256,-0.58479,-57.57,2.40E+08
36237,16.091,-1.1124,-57.184,2.61E+08
36238,17.54,0.81141,-53.396,2.78E+08
36239,17.631,-1.4168,-55.686,2.44E+08
36240,16.066,0.57201,-55.546,2.76E+08
36241,15.908,0.76753,-57.87,2.95E+08
36242,17.711,9.6541,-49.6,2.34E+08
36243,16.877,10.985,-45.441,2.50E+08
36244,17.727,11.476,-47.926,2.18E+08
36245,16.758,7.8524,-47.076,2.41E+08
36246,14.04,10.093,-48.887,2.42E+08
36247,13.886,8.8238,-46.466,2.40E+08
36248,14.706,7.682,-48.389,2.31E+08
36249,16.481,11.647,-51.818,1.92E+08
36250,18.856,9.2431,-54.103,2.19E+08
36251,18.747,11.193,-50.211,2.13E+08
36252,15.584,11,-54.011,1.94E+08
36253,17.732,6.9591,-52.311,2.43E+08
36254,17.778,7.5698,-49.361,2.47E+08
36255,15.059,9.8109,-51.171,2.40E+08
36256,15.607,9.0944,-53.046,2.31E+08
36257,15.726,7.3995,-50.674,2.38E+08
36258,-6.8563,27.547,-46.51,5.26E+07
36259,-28.355,-3.6748,22.167,1.83E+08
36260,-28.763,-6.1028,21.213,1.72E+08
36261,-32.477,-5.0886,20.403,1.93E+08
36262,-30.996,-6.5489,21.508,1.87E+08
36263,-32.077,-4.2128,22.474,1.87E+08
36264,-29.812,-4.9846,23.112,1.88E+08
36265,-33.847,-11.715,18.659,1.93E+08
36266,-37.447,-10.34,20.703,1.94E+08
36267,-36.056,-10.135,16.704,2.38E+08
36268,-35.328,-12.216,16.473,2.17E+08
36269,-36.101,-8.8099,19.164,2.29E+08
36270,-34.62,-10.27,20.269,2.12E+08
36271,1.1131,-38.625,-34.431,5.29E+07
36272,5.2832,-36.515,-34.288,6.15E+07
36273,2.5216,-39.442,-35.138,3.51E+07
36274,23.443,-3.4257,-40.639,1.76E+08
36275,21.141,-3.1383,-42.259,1.95E+08
36276,19.415,-3.107,-40.72,1.81E+08
36277,21.249,-3.7543,-37.149,1.83E+08
36278,22.498,-5.2617,-38.608,1.63E+08
36279,20.057,-4.7902,-39.038,1.66E+08
36280,21.742,-5.0348,-41.041,1.62E+08
36281,18.045,6.8648,-57.242,1.90E+08
36282,17.687,6.7453,-59.566,1.44E+08
36283,16.921,4.5808,-55.45,2.32E+08
36284,15.568,2.5371,-55.964,2.41E+08
36285,15.409,2.7326,-58.288,2.64E+08
36286,13.335,13.276,-53.944,1.64E+08
36287,12.81,12.086,-51.105,2.08E+08
36288,13.283,15.622,-53.782,1.32E+08
36289,13.521,15.951,-50.226,1.58E+08
36290,16.181,13.913,-44.35,2.46E+08
36291,14.894,18.53,-45.579,1.66E+08
36292,14.056,16.886,-46.917,1.87E+08
36293,9.7947,-16.383,-51.27,7.24E+07
36294,12.882,-15.337,-52.673,9.66E+07
36295,11.36,-12.675,-54.167,1.22E+08
36296,13.087,-13.483,-54.244,1.09E+08
36297,9.4971,-12.734,-53.58,1.23E+08
36298,11.629,-13.409,-51.527,1.12E+08
36299,9.8416,-13.831,-51.958,1.20E+08
36300,11.019,-15.384,-50.999,9.66E+07
36301,-11.555,27.159,-60.333,2.37E+07
36302,-11.607,29.524,-61.124,1.00E+07
36303,-13.658,26.336,-59.396,2.47E+07
36304,-15.474,32.461,-46.77,8.64E+06
36305,-24.866,-3.0275,25.681,1.95E+08
36306,-25.864,-5.2889,24.837,1.89E+08
36307,-27.161,-5.6147,22.913,1.75E+08
36308,-26.961,-3.477,26.285,1.94E+08
36309,-28.21,-4.4964,24.812,1.90E+08
36310,-29.07,-12.693,21.127,1.98E+08
36311,-30.203,-13.9,19.069,1.91E+08
36312,-29.029,-9.9333,20.645,1.78E+08
36313,-31.97,-12.325,17.144,1.99E+08
36314,-31.262,-10.379,20.94,1.87E+08
36315,-31.129,-27.857,15.685,1.48E+08
36316,-30.971,-23.218,16.074,1.68E+08
36317,-31.925,-25.442,13.903,1.65E+08
36318,-29.638,-25.439,18.155,1.59E+08
36319,-31.601,-32.982,15.225,1.23E+08
36320,-32.599,-30.083,12.42,1.45E+08
36321,-32.396,-27.676,13.512,1.59E+08
36322,8.9202,-18.012,-47.477,3.65E+07
36323,9.9863,-17.698,-45.202,5.37E+07
36324,10.144,-17.013,-47.206,5.75E+07
36325,8.7539,-16.977,-45.777,5.79E+07
36326,18.792,-19.817,-30.426,1.29E+08
36327,16.532,-25.366,-31.087,1.23E+08
36328,18.538,-24.663,-30.217,1.24E+08
36329,18.314,-19.97,-32.821,1.14E+08
36330,15.043,-23.192,-31.496,1.39E+08
36331,18.81,-22.271,-30.075,1.35E+08
36332,20.63,-15.828,-50.335,6.42E+07
36333,21.036,-16.489,-47.989,6.29E+07
36334,17.27,-15.991,-50.573,7.48E+07
36335,17.187,-16.362,-48.377,7.08E+07
36336,19.395,-14.921,-51.741,7.14E+07
36337,18.635,-15.941,-47.456,7.11E+07
36338,20.059,-14.43,-47.697,7.64E+07
36339,18.809,-14.21,-49.577,8.07E+07
36340,18.031,13.053,-43.694,1.58E+08
36341,-4.4528,29.016,-60.36,2.73E+07
36342,-7.0074,26.516,-59.507,3.48E+07
36343,-6.4712,25.779,-57.873,4.33E+07
36344,-38.193,-6.201,24.732,1.62E+08
36345,-38.588,-9.058,26.204,1.12E+08
36346,-36.343,-7.5441,21.879,1.79E+08
36347,-34.862,-9.0043,22.985,1.67E+08
36348,-36.177,-8.7343,25.465,1.56E+08
36349,-35.944,-6.6682,23.95,1.73E+08
36350,-30.392,-38.225,16.691,8.91E+07
36351,-30.271,-36.145,17.348,1.00E+08
36352,-32.44,-35.166,12.947,1.12E+08
36353,-31.471,-37.634,14.688,9.15E+07
36354,-2.8101,-40.285,-34.072,4.48E+07
36355,1.2395,-41.33,-34.892,2.82E+07
36356,9.2676,-38.428,-33.432,5.14E+07
36357,10.405,-34.363,-33.339,7.29E+07
36358,7.8119,-33.849,-34.07,7.66E+07
36359,7.6284,-38.145,-33.765,5.63E+07
36360,27.376,-13.399,-34.846,1.00E+08
36361,27.409,-11.165,-35.756,1.08E+08
36362,27.219,-11.493,-31.718,1.13E+08
36363,27.641,-9.4919,-31.636,1.24E+08
36364,25.05,-11.903,-34.216,1.13E+08
36365,25.554,-9.6272,-32.475,1.26E+08
36366,25.553,-9.1056,-35.503,1.29E+08
36367,27.269,-9.0549,-34.201,1.32E+08
36368,27.412,-12.83,-33.096,1.02E+08
36369,22.57,-15.251,-28.418,1.22E+08
36370,21.957,-19.272,-28.503,1.27E+08
36371,20.446,-15.004,-29.686,1.24E+08
36372,22.871,-17.324,-27.703,1.24E+08
36373,22.535,-17.392,-30.696,1.06E+08
36374,20.031,-17.752,-32.258,1.08E+08
36375,20.527,-20.053,-29.512,1.27E+08
36376,18.905,-16.022,-30.637,1.22E+08
36377,21.566,-15.305,-32.35,1.10E+08
36378,22.787,-3.4341,-27.593,1.45E+08
36379,23.688,-3.884,-30.791,1.59E+08
36380,21.221,-5.6345,-28.42,1.40E+08
36381,21.019,-4.0195,-31.825,1.66E+08
36382,23.539,-4.3234,-28.788,1.47E+08
36383,19.467,-5.8861,-29.884,1.39E+08
36384,22.27,-6.0485,-30.255,1.42E+08
36385,-39.091,-6.1852,27.517,1.17E+08
36386,-39.77,-3.4749,28.049,1.64E+08
36387,-37.206,-3.4855,28.196,1.74E+08
36388,-36.681,-5.8615,26.778,1.60E+08
36389,-36.447,-3.7954,25.263,1.91E+08
36390,9.2818,-15.227,-49.709,8.07E+07
36391,10.459,-16.78,-48.75,5.86E+07
36392,9.0686,-16.743,-47.321,5.87E+07
36393,11.749,22.035,-49.255,1.10E+08
36394,12.336,22.136,-46.61,1.11E+08
36395,12.002,25.157,-47.172,8.36E+07
36396,10.168,23.564,-50.747,9.89E+07
36397,9.6482,25.156,-47.092,9.63E+07
36398,11.497,20.491,-47.949,1.43E+08
36399,12.146,24.221,-48.984,8.61E+07
36400,9.8187,24.719,-48.989,9.62E+07
36401,13.773,16.029,-59.37,6.03E+07
36402,13.763,13.323,-57.735,1.21E+08
36403,13.71,15.67,-57.572,8.46E+07
36404,16.12,12.197,-59.751,8.88E+07
36405,15.351,16.211,-60.188,4.72E+07
36406,11.366,19.816,-59.166,7.00E+07
36407,13.735,20.443,-59.984,5.57E+07
36408,13.372,20.293,-57.606,6.69E+07
36409,12.396,17.682,-57.61,1.00E+08
36410,14.037,18.224,-60.226,5.95E+07
36411,-26.315,-13.339,24.395,2.28E+08
36412,-28.784,-14.769,20.866,2.06E+08
36413,-27.61,-10.802,22.442,1.86E+08
36414,-28.882,-11.944,24.435,2.10E+08
36415,-29.843,-11.248,22.737,1.97E+08
36416,-26.163,-15.982,24.109,2.25E+08
36417,-32.351,-4.4732,31.521,1.62E+08
36418,-32.205,-6.4832,29.667,1.81E+08
36419,-33.917,-3.9349,29.442,1.71E+08
36420,-29.643,-3.9971,28.621,1.91E+08
36421,-33.392,-6.3108,28.024,1.76E+08
36422,-30.882,-4.8597,29.745,1.85E+08
36423,-33.158,-4.2448,26.51,1.93E+08
36424,-30.893,-5.0166,27.148,1.87E+08
36425,-28.875,-18.26,19.797,1.92E+08
36426,-29.558,-20.678,18.429,1.83E+08
36427,-26.254,-19.473,23.04,2.16E+08
36428,-28.225,-22.899,20.51,1.76E+08
36429,17.995,-27.993,-30.315,1.11E+08
36430,14.5,-26.522,-31.593,1.26E+08
36431,14.314,-30.564,-31.982,9.65E+07
36432,16.227,-31.773,-30.854,9.50E+07
36433,13.708,-28.594,-32.307,1.06E+08
36434,26.429,-16.122,-39.221,7.36E+07
36435,28.277,-16.341,-41.397,6.11E+07
36436,26.7,-16.203,-43.859,5.77E+07
36437,24.395,-16.27,-40.345,7.26E+07
36438,24.263,-16.461,-44.502,6.14E+07
36439,23.153,-16.043,-42.301,7.07E+07
36440,26.462,-13.887,-40.131,7.91E+07
36441,27.598,-13.892,-41.691,6.87E+07
36442,24.98,-14.889,-44.357,6.81E+07
36443,25.296,-13.839,-42.158,7.84E+07
36444,29.123,-16.224,-38.274,7.02E+07
36445,29.192,-15.951,-34.32,8.05E+07
36446,25.918,-16.594,-33.814,8.62E+07
36447,25.242,-16.152,-37.221,8.20E+07
36448,27.309,-13.769,-37.008,8.98E+07
36449,29.577,-15.996,-36.245,7.91E+07
36450,24.95,-14.507,-35.468,9.43E+07
36451,27.312,-15.435,-34.348,8.40E+07
36452,22.168,-27.162,-27.349,1.17E+08
36453,20.272,-24.899,-29.303,1.22E+08
36454,21.064,-29.653,-28.303,1.00E+08
36455,13.901,21.168,-48.668,1.09E+08
36456,11.734,22.596,-52.805,7.53E+07
36457,13.8,21.806,-53.558,7.87E+07
36458,12.824,19.195,-53.562,1.11E+08
36459,13.062,19.524,-50.007,1.38E+08
36460,13.711,23.253,-51.041,7.18E+07
36461,24.335,-4.0512,-57.363,9.74E+07
36462,25.348,-7.6252,-56.011,6.27E+07
36463,23.378,-8.618,-55.89,7.47E+07
36464,25.203,-5.1812,-54.988,9.58E+07
36465,22.605,-4.7479,-54.886,1.31E+08
36466,22.019,-3.8927,-57.075,1.45E+08
36467,23.61,-6.3662,-54.23,9.94E+07
36468,21.804,-7.1073,-54.814,9.87E+07
36469,26.283,-4.934,-57.138,6.65E+07
36470,18.624,8.9951,-58.645,1.22E+08
36471,15.71,10.872,-56.23,1.72E+08
36472,17.858,6.8306,-54.529,2.21E+08
36473,15.732,8.9659,-55.264,2.09E+08
36474,18.067,9.7462,-58.246,1.49E+08
36475,14.154,24.29,-46.585,8.10E+07
36476,13.65,19.624,-47.362,1.45E+08
36477,14.298,23.353,-48.397,8.03E+07
36478,4.1081,38.344,-60.658,2.48E+06
36479,5.2969,37.828,-59.081,5.47E+06
36480,-12.477,36.312,-48.02,3.74E+06
36481,-7.33,36.549,-48.087,3.63E+06
36482,-7.0062,38.652,-48.251,3.10E+06
36483,-12.466,38.561,-48.336,1.71E+06
36484,-12.913,35.985,-61.811,2.71E+06
36485,-15.336,36.275,-62.032,1.88E+06
36486,-4.2926,34.439,-61.768,4.85E+06
36487,-6.8878,31.314,-61.459,7.10E+06
36488,-20.889,-2.9862,29.258,2.21E+08
36489,-23.976,-5.1297,26.651,1.96E+08
36490,-25.073,-3.3178,28.099,2.01E+08
36491,-23.436,-3.1302,29.635,2.13E+08
36492,-22.502,-4.5925,28.059,2.07E+08
36493,26.924,-14.863,-27.19,1.12E+08
36494,22.507,-12.655,-28.241,1.24E+08
36495,24.932,-14.976,-26.258,1.24E+08
36496,24.596,-15.043,-29.251,1.07E+08
36497,23.083,-10.267,-27.328,1.28E+08
36498,25.796,-12.547,-28.406,1.14E+08
36499,26.316,-12.758,-25.808,1.21E+08
36500,24.132,-10.681,-29.164,1.25E+08
36501,25.186,-10.665,-26.169,1.24E+08
36502,26.296,-3.8957,-23.99,1.29E+08
36503,27.465,-3.5982,-25.943,1.42E+08
36504,23.1,-5.4312,-26.858,1.34E+08
36505,25.419,-4.1202,-27.226,1.41E+08
36506,25.204,-5.8296,-25.699,1.30E+08
36507,28.615,-4.4662,-34.128,1.65E+08
36508,28.652,-4.6874,-31.664,1.58E+08
36509,23.799,-4.2662,-33.461,1.74E+08
36510,27.137,-6.1599,-31.052,1.48E+08
36511,26.636,-3.6899,-34.703,1.74E+08
36512,26.319,-4.5701,-30.424,1.55E+08
36513,25.05,-6.2952,-31.891,1.49E+08
36514,26.765,-5.7229,-33.618,1.57E+08
36515,27.337,-4.0759,-49.648,1.34E+08
36516,25.756,-3.9737,-51.212,1.40E+08
36517,23.157,-3.5404,-51.111,1.73E+08
36518,22.826,-3.3429,-46.749,1.92E+08
36519,27.264,-3.8543,-47.406,1.48E+08
36520,24.163,-5.1587,-50.454,1.44E+08
36521,22.368,-3.37,-49.148,1.90E+08
36522,22.976,-5.4612,-48.145,1.55E+08
36523,24.728,-4.039,-46.951,1.67E+08
36524,25.644,-5.3059,-48.729,1.41E+08
36525,10.213,22.858,-56.611,6.69E+07
36526,12.642,22.217,-59.741,4.98E+07
36527,10.922,24.312,-59.46,4.62E+07
36528,12.279,22.067,-57.364,5.66E+07
36529,11.303,19.456,-57.368,8.65E+07
36530,9.0321,23.459,-58.826,5.35E+07
36531,-15.209,36.719,-47.48,2.39E+06
36532,-4.6011,37.047,-47.463,3.32E+06
36533,-22.946,-11.808,27.742,2.55E+08
36534,-22.951,-14.596,27.364,2.70E+08
36535,-25.651,-11.18,28.32,2.36E+08
36536,-24.976,-10.253,25.837,2.10E+08
36537,-26.273,-10.579,23.913,1.99E+08
36538,-27.545,-11.721,25.906,2.27E+08
36539,-24.826,-15.759,25.58,2.38E+08
36540,-40.166,-6.3318,29.52,8.62E+07
36541,-41.026,-8.8407,31.187,8.15E+07
36542,-37.601,-6.3425,29.667,1.14E+08
36543,-37.076,-8.7184,28.249,1.34E+08
36544,-38.205,-8.2723,30.859,1.07E+08
36545,30.42,-4.7263,-38.849,1.45E+08
36546,32.611,-4.9329,-43.202,1.03E+08
36547,32.618,-5.7911,-40.461,1.09E+08
36548,30.719,-6.8332,-39.82,9.52E+07
36549,27.798,-4.1976,-41.672,1.48E+08
36550,28.44,-3.9499,-39.425,1.55E+08
36551,31.321,-7.0216,-42.776,9.74E+07
36552,29.934,-4.4217,-43.949,1.25E+08
36553,28.843,-6.1204,-40.36,1.22E+08
36554,28.754,-6.1401,-42.98,1.18E+08
36555,29.845,-8.0978,-41.453,1.01E+08
36556,30.957,-3.4881,-40.588,1.42E+08
36557,33.693,-16.579,-41.471,4.20E+07
36558,33.094,-15.265,-38.712,6.42E+07
36559,33.692,-16.765,-38.808,5.18E+07
36560,29.395,-16.305,-42.911,5.35E+07
36561,29.156,-13.989,-39.183,7.63E+07
36562,31.424,-16.216,-38.42,6.61E+07
36563,31.707,-15.571,-42.596,5.01E+07
36564,30.292,-13.994,-40.743,6.54E+07
36565,33.827,-16.259,-32.528,7.36E+07
36566,32.389,-16.274,-30.48,8.57E+07
36567,30.162,-16.361,-29.975,8.77E+07
36568,31.492,-15.943,-34.467,7.66E+07
36569,29.228,-15.382,-32.569,8.20E+07
36570,31.472,-14.954,-31.333,9.11E+07
36571,23.87,-23.989,-26.198,1.26E+08
36572,24.828,-21.215,-25.783,1.33E+08
36573,24.319,-18.996,-26.343,1.29E+08
36574,23.983,-19.064,-29.336,1.09E+08
36575,21.975,-21.725,-28.152,1.33E+08
36576,28.726,-15.285,-50.055,3.69E+07
36577,27.144,-15.837,-47.578,4.74E+07
36578,24.3,-15.434,-50.566,5.31E+07
36579,24.706,-16.096,-48.22,5.23E+07
36580,26.648,-14.859,-51.683,4.23E+07
36581,27.164,-12.989,-48.924,5.62E+07
36582,24.988,-13.339,-50.323,6.20E+07
36583,25.424,-14.524,-48.075,5.75E+07
36584,27.123,-13.746,-50.808,5.06E+07
36585,25.907,-3.3014,-56.015,1.03E+08
36586,22.722,-2.0129,-58.102,1.53E+08
36587,26.987,-3.0541,-58.165,7.60E+07
36588,-42.197,-3.0872,32.328,1.30E+08
36589,-41.705,-6.1304,31.719,5.76E+07
36590,-39.465,-3.5096,32.421,1.27E+08
36591,-38.28,-3.6322,30.199,1.43E+08
36592,-38.885,-5.562,31.391,9.88E+07
36593,-27.569,-40.459,20.405,8.37E+07
36594,-29.06,-38.496,18.884,8.57E+07
36595,-30.261,-39.985,16.223,8.28E+07
36596,12.49,-40.193,-32.124,4.26E+07
36597,8.7249,-40.279,-33.297,4.45E+07
36598,33.093,-4.5921,-35.323,1.57E+08
36599,32.96,-5.8665,-37.441,1.26E+08
36600,30.799,-5.0229,-33.365,1.56E+08
36601,31.062,-6.9086,-36.8,1.11E+08
36602,28.783,-4.0254,-36.404,1.71E+08
36603,29.185,-6.1958,-37.34,1.39E+08
36604,28.912,-6.0584,-35.319,1.54E+08
36605,31.895,-5.2245,-34.405,1.53E+08
36606,31.3,-3.5636,-37.568,1.60E+08
36607,25.294,-24.26,-24.838,1.27E+08
36608,25.194,-29.363,-24.426,1.06E+08
36609,25.647,-26.009,-23.854,1.27E+08
36610,23.231,-29.525,-26.207,1.06E+08
36611,28.264,-7.6314,-21.442,1.20E+08
36612,29.095,-4.2631,-23.9,1.33E+08
36613,29.089,-5.5902,-20.29,1.18E+08
36614,30.058,-4.3748,-21.601,1.29E+08
36615,29.661,-6.3447,-23.068,1.24E+08
36616,26.834,-6.4945,-23.656,1.23E+08
36617,28.594,-3.492,-20.593,1.17E+08
36618,30.868,-4.8435,-52.599,7.00E+07
36619,32.56,-4.7768,-50.375,7.31E+07
36620,28.785,-6.6727,-51.178,8.44E+07
36621,30.779,-6.4517,-49.495,7.92E+07
36622,28.356,-4.5336,-52.076,9.97E+07
36623,29.864,-4.4142,-48.27,1.08E+08
36624,28.244,-5.8657,-49.593,9.99E+07
36625,11.887,29.78,-47.151,2.71E+07
36626,14.184,30.752,-47.235,2.53E+07
36627,11.466,27.31,-47.067,4.56E+07
36628,13.964,26.375,-48.959,4.28E+07
36629,11.637,26.873,-48.964,4.57E+07
36630,-15.484,39.123,-48.921,1.19E+06
36631,-7.469,37.458,-61.954,1.59E+06
36632,-7.7256,37.633,-59.911,2.72E+06
36633,-10.064,34.333,-61.646,5.98E+06
36634,-13.057,37.775,-62.116,2.24E+06
36635,-4.5604,37.605,-59.97,1.79E+06
36636,-16.006,-3.0437,32.439,2.73E+08
36637,-18.391,-3.4609,34.032,2.86E+08
36638,-21.346,-3.248,31.399,2.31E+08
36639,-20.412,-4.7103,29.822,2.26E+08
36640,-17.055,-4.8212,31.783,2.53E+08
36641,-20.024,-4.8946,32.509,2.60E+08
36642,-18.864,-4.9378,30.448,2.30E+08
36643,-24.817,-32.625,24.816,1.12E+08
36644,-22.808,-32.448,26.784,1.04E+08
36645,-22.825,-28.338,26.538,1.45E+08
36646,-21.542,-30.079,27.268,1.35E+08
36647,-25.301,-30.045,24.145,1.31E+08
36648,35.816,-15.401,-39.734,5.09E+07
36649,36.315,-16.599,-44.577,2.10E+07
36650,36.327,-14.816,-43.446,2.88E+07
36651,36.414,-16.901,-39.83,3.78E+07
36652,34.429,-15.706,-43.618,3.46E+07
36653,37.102,-17.283,-40.858,2.82E+07
36654,27.911,-21.698,-22.649,1.33E+08
36655,27.734,-19.155,-25.916,1.14E+08
36656,25.742,-19.268,-24.983,1.30E+08
36657,27.234,-20.112,-23.342,1.31E+08
36658,26.606,-23.236,-23.44,1.33E+08
36659,33.755,-15.434,-50.333,1.86E+07
36660,33.599,-15.774,-48.495,2.16E+07
36661,29.401,-15.614,-47.851,3.90E+07
36662,28.905,-14.636,-51.956,3.33E+07
36663,31.713,-14.881,-47.536,3.44E+07
36664,29.421,-12.766,-49.198,4.81E+07
36665,31.392,-15.057,-52.063,2.25E+07
36666,31.639,-14.092,-49.995,3.05E+07
36667,29.379,-13.523,-51.081,4.19E+07
36668,12.661,25.384,-55.78,3.89E+07
36669,15.09,24.743,-58.91,2.47E+07
36670,13.369,26.838,-58.629,1.73E+07
36671,14.727,24.593,-56.533,3.72E+07
36672,15.754,26.892,-58.773,1.41E+07
36673,10.862,25.58,-57.147,4.36E+07
36674,12.219,23.335,-55.05,5.58E+07
36675,12.131,24.782,-52.534,5.09E+07
36676,8.9722,24.727,-56.513,5.07E+07
36677,9.8037,25.28,-52.539,6.33E+07
36678,7.0241,27.43,-47.485,5.57E+07
36679,7.1946,26.993,-49.381,5.44E+07
36680,5.3131,29.412,-47.378,4.64E+07
36681,33.491,-4.9846,-52.462,4.85E+07
36682,33.896,-5.5255,-55.78,2.62E+07
36683,29.287,-4.7414,-54.163,7.70E+07
36684,32.361,-3.6363,-56.186,3.57E+07
36685,30.366,-4.4941,-56.313,4.49E+07
36686,31.736,-7.2776,-55.776,3.07E+07
36687,33.673,-4.243,-54.435,3.75E+07
36688,-26.305,-6.5449,35.635,2.20E+08
36689,-27.736,-4.1967,36.183,1.74E+08
36690,-29.902,-4.4762,34.415,1.66E+08
36691,-26.771,-6.7383,32.55,2.17E+08
36692,-28.087,-6.5572,34.345,2.04E+08
36693,-25.344,-4.0116,36.263,2.09E+08
36694,-27.194,-4.0002,31.514,1.96E+08
36695,-25.556,-3.8126,33.051,2.08E+08
36696,-28.432,-4.8628,32.639,1.90E+08
36697,-24.234,-5.4591,34.161,2.33E+08
36698,-20.919,-13.289,29.24,2.74E+08
36699,-18.438,-10.332,30.928,2.91E+08
36700,-19.111,-12.49,30.161,2.87E+08
36701,-23.619,-9.8719,30.197,2.56E+08
36702,-21.295,-10.497,32.001,3.09E+08
36703,-22.944,-8.9457,27.713,2.28E+08
36704,-21.47,-8.4085,29.121,2.39E+08
36705,-21.081,-8.5928,31.807,2.69E+08
36706,-19.922,-8.636,29.747,2.50E+08
36707,-36.536,-8.8851,35.751,1.39E+08
36708,-33.366,-6.7834,34.995,1.42E+08
36709,-33.22,-8.7934,33.141,1.80E+08
36710,-32.536,-8.3808,37.067,1.67E+08
36711,-31.552,-8.8644,34.924,1.99E+08
36712,-35.537,-8.1749,34.108,1.40E+08
36713,-35.362,-6.9876,37.017,1.10E+08
36714,-34.572,-8.9151,37.756,1.53E+08
36715,-25.975,-37.613,23.15,8.71E+07
36716,-23.985,-34.706,25.686,8.84E+07
36717,-27.467,-35.649,21.629,9.54E+07
36718,-24.798,-36.935,24.683,8.43E+07
36719,-26.478,-32.303,23.047,1.16E+08
36720,35.188,-10.509,-38.014,8.26E+07
36721,36.054,-11.859,-39.717,5.93E+07
36722,35.728,-13.502,-40.688,5.27E+07
36723,35.815,-15.587,-37.071,6.18E+07
36724,33.29,-11.551,-37.373,6.64E+07
36725,33.547,-15.038,-36.683,7.42E+07
36726,33.891,-11.74,-40.329,6.88E+07
36727,33.83,-14.393,-40.859,5.69E+07
36728,32.415,-12.816,-39.006,7.33E+07
36729,36.573,-15.182,-30.88,8.94E+07
36730,35.109,-16.635,-30.467,8.23E+07
36731,36.479,-16.854,-34.842,5.90E+07
36732,34.212,-16.304,-34.454,7.13E+07
36733,36.7,-17.169,-30.006,8.13E+07
36734,34.191,-15.315,-31.32,8.73E+07
36735,30.494,-13.529,-19.34,1.24E+08
36736,31.364,-16.108,-22.277,1.14E+08
36737,30.149,-16.008,-19.781,1.25E+08
36738,29.128,-15.896,-24.54,1.11E+08
36739,28.821,-12.835,-21.304,1.24E+08
36740,27.136,-16.008,-23.608,1.25E+08
36741,28.628,-16.853,-21.966,1.26E+08
36742,28.52,-13.791,-23.158,1.22E+08
36743,30.388,-14.524,-23.476,1.12E+08
36744,30.74,-13.822,-21.793,1.18E+08
36745,35.103,-4.4256,-32.228,1.61E+08
36746,35.177,-4.9083,-26.901,1.64E+08
36747,35.905,-5.5006,-29.416,1.70E+08
36748,32.809,-4.8563,-30.27,1.57E+08
36749,33.922,-6.4278,-29.101,1.38E+08
36750,32.523,-4.2171,-27.747,1.57E+08
36751,35.941,-3.3211,-28.398,1.81E+08
36752,33.904,-5.0579,-31.31,1.54E+08
36753,36.217,-3.5304,-30.171,1.71E+08
36754,35.291,-5.657,-36.934,1.21E+08
36755,36.326,-3.3732,-37.389,1.38E+08
36756,36.641,-3.0186,-34.781,1.56E+08
36757,34.225,-5.0149,-33.898,1.49E+08
36758,36.539,-3.4874,-32.759,1.64E+08
36759,33.63,-3.354,-37.061,1.53E+08
36760,35.164,-5.0664,-47.386,6.52E+07
36761,35.818,-7.8013,-46.259,4.82E+07
36762,35.152,-6.0731,-41.794,8.49E+07
36763,36.018,-7.4233,-43.497,6.05E+07
36764,36.186,-3.7893,-42.248,9.87E+07
36765,33.383,-6.7413,-46.506,6.86E+07
36766,33.855,-7.3037,-44.109,7.13E+07
36767,32.468,-4.7037,-45.281,9.89E+07
36768,36.425,-3.702,-45.175,7.48E+07
36769,33.491,-3.7702,-41.921,1.17E+08
36770,27.349,-9.0144,-53.764,5.51E+07
36771,25.095,-10.312,-55.565,5.01E+07
36772,26.92,-6.8754,-54.662,7.11E+07
36773,26.946,-11.765,-54.634,3.89E+07
36774,25.327,-8.0603,-53.905,7.42E+07
36775,25.286,-10.245,-53.274,5.74E+07
36776,27.999,-6.6281,-56.813,4.20E+07
36777,29.369,-9.4116,-56.275,2.88E+07
36778,27.42,-10.652,-53.759,4.63E+07
36779,13.29,24.94,-60.278,2.58E+07
36780,14.648,22.694,-58.181,4.38E+07
36781,15.313,20.625,-60.802,3.65E+07
36782,15.676,24.993,-60.421,2.25E+07
36783,9.2516,27.86,-60.267,2.01E+07
36784,12.928,24.789,-57.9,3.32E+07
36785,9.6805,26.182,-59.362,3.67E+07
36786,11.123,28.7,-60.514,1.86E+07
36787,13.955,27.088,-60.14,1.84E+07
36788,-43.057,-5.596,33.995,4.42E+07
36789,-45.712,-2.5394,37.117,1.16E+08
36790,-40.817,-2.9753,34.696,1.20E+08
36791,-42.399,-3.1661,36.857,1.05E+08
36792,-43.841,-4.5768,35.932,6.32E+07
36793,-45.11,-1.2764,35.377,1.59E+08
36794,-21.046,-18.118,28.176,2.71E+08
36795,-19.247,-17.836,29.505,2.82E+08
36796,-19.116,-15.278,29.783,3.10E+08
36797,-22.798,-17.24,27.078,2.74E+08
36798,-44.319,-9.4241,35.348,1.01E+08
36799,-40.744,-8.781,34.701,9.35E+07
36800,-40.326,-6.0184,34.088,6.01E+07
36801,-43.349,-7.62,35.324,5.01E+07
36802,-39.745,-8.0708,33.058,9.03E+07
36803,-27.448,-38.38,21.062,8.88E+07
36804,-24.779,-39.665,24.116,7.82E+07
36805,35.837,-7.6528,-49.11,3.65E+07
36806,33.402,-6.5927,-49.357,5.82E+07
36807,32.487,-4.5552,-48.132,8.77E+07
36808,35.366,-4.1763,-52.21,4.12E+07
36809,36.444,-3.5535,-48.026,6.17E+07
36810,36.523,-3.697,-50.758,4.31E+07
36811,5.5929,27.27,-60.451,3.99E+07
36812,5.8936,30.748,-60.777,1.55E+07
36813,7.3621,27.007,-59.632,3.48E+07
36814,8.8043,29.526,-60.784,1.79E+07
36815,6.0218,25.592,-59.546,4.46E+07
36816,-19.37,-19.877,28.819,2.50E+08
36817,-21.589,-23.234,27.326,2.01E+08
36818,-22.921,-19.281,26.393,2.43E+08
36819,36.509,-13.097,-49.16,1.45E+07
36820,36.353,-13.436,-47.322,1.78E+07
36821,36.69,-10.01,-45.222,3.10E+07
36822,36.364,-11.653,-46.192,2.50E+07
36823,34.056,-9.3277,-48.23,4.14E+07
36824,34.528,-9.8901,-45.833,4.28E+07
36825,34.393,-11.755,-48.823,2.64E+07
36826,36.024,-8.2815,-40.756,6.78E+07
36827,36.193,-4.6476,-39.507,1.07E+08
36828,33.26,-7.9735,-38.411,7.61E+07
36829,33.861,-8.1619,-41.367,7.76E+07
36830,33.497,-4.6284,-39.179,1.24E+08
36831,30.959,-21.99,-18.43,1.34E+08
36832,30.415,-19.479,-19.383,1.30E+08
36833,29.663,-24.679,-19.974,1.23E+08
36834,28.893,-20.323,-21.568,1.30E+08
36835,28.265,-23.447,-21.665,1.32E+08
36836,32.058,-3.4653,-14.566,1.00E+08
36837,33.373,-4.0142,-18.28,1.37E+08
36838,34.176,-3.2601,-14.93,1.42E+08
36839,32.562,-5.1808,-15.659,1.16E+08
36840,30.91,-4.8168,-17.899,1.13E+08
36841,31.879,-3.6014,-19.21,1.26E+08
36842,30.416,-2.7186,-18.203,1.14E+08
36843,36.372,-16.145,-48.499,1.23E+07
36844,36.878,-14.942,-53.055,6.05E+06
36845,37.429,-17.023,-49.934,7.15E+06
36846,34.165,-15.429,-52.068,1.35E+07
36847,34.412,-14.464,-50,2.12E+07
36848,12.25,33.22,-47.239,1.06E+07
36849,7.1473,33.454,-47.369,1.16E+07
36850,10.053,34.833,-47.674,1.04E+07
36851,9.5334,29.778,-47.071,3.96E+07
36852,7.8224,31.76,-46.965,1.60E+07
36853,37.133,-7.0967,-57.517,5.91E+06
36854,37.036,-3.972,-57.844,2.90E+06
36855,34.459,-4.1105,-57.28,1.53E+07
36856,33.834,-7.7519,-56.87,1.39E+07
36857,35.728,-4.0964,-57.268,8.20E+06
36858,35.771,-4.7173,-55.528,1.77E+07
36859,-10.776,-4.2597,34.517,2.53E+08
36860,-15.599,-3.4006,35.45,3.18E+08
36861,-13.422,-2.983,36.232,3.59E+08
36862,-14.263,-4.7609,33.201,2.92E+08
36863,-12.053,-2.4476,35.484,3.33E+08
36864,-13.09,-4.7168,35.633,3.26E+08
36865,-12.455,-5.8198,33.882,2.82E+08
36866,-16.635,-12.321,31.471,3.10E+08
36867,-14.522,-11.778,32.96,3.17E+08
36868,-18.818,-10.328,33.31,3.29E+08
36869,-15.637,-8.3508,32.391,2.94E+08
36870,-16.366,-9.976,34.358,3.41E+08
36871,-18.605,-8.4242,33.117,2.84E+08
36872,-13.829,-9.4097,33.072,2.99E+08
36873,-17.445,-8.4674,31.056,2.67E+08
36874,-39.741,-6.0043,41.764,3.95E+07
36875,-39.174,-8.0483,43.634,7.25E+07
36876,-40.826,-8.2641,41.685,7.73E+07
36877,-39.088,-8.601,38.235,9.94E+07
36878,-40.252,-6.0293,39.784,4.32E+07
36879,-41.694,-7.4401,38.858,5.64E+07
36880,-37.652,-8.4041,41.967,9.58E+07
36881,-37.915,-6.7035,39.502,6.84E+07
36882,-37.125,-8.631,40.24,1.14E+08
36883,-22.789,-36.758,26.652,7.62E+07
36884,-20.711,-32.16,28.139,1.12E+08
36885,36.176,-13.93,-27.269,1.09E+08
36886,35.746,-14.554,-21.999,1.23E+08
36887,34.721,-15.681,-24.088,1.09E+08
36888,34.712,-15.383,-26.856,1.01E+08
36889,33.391,-12.861,-26.625,1.08E+08
36890,35.874,-12.319,-23.116,1.23E+08
36891,36.303,-15.917,-26.395,1.00E+08
36892,33.744,-14.098,-25.287,1.06E+08
36893,34.097,-13.396,-23.603,1.09E+08
36894,35.686,-12.192,-25.342,1.07E+08
36895,36.947,-15.925,-23.794,1.18E+08
36896,33.795,-14.063,-27.709,1.06E+08
36897,37.272,-17.363,-48.095,8.64E+06
36898,36.227,-14.701,-45.531,2.29E+07
36899,34.329,-15.592,-45.702,2.93E+07
36900,34.256,-14.803,-48.161,2.46E+07
36901,12.987,33.431,-60.496,8.34E+06
36902,15.186,34.717,-61.169,6.33E+06
36903,12.945,31.23,-60.838,1.17E+07
36904,15.777,29.618,-60.464,1.20E+07
36905,-44.052,-3.1277,41.352,9.04E+07
36906,-45.962,-2.943,42.54,9.49E+07
36907,-48.924,-2.7365,41.942,9.53E+07
36908,-45.137,-5.3874,41.273,3.07E+07
36909,-44.563,-3.1526,39.372,9.24E+07
36910,-46.005,-4.5634,38.446,5.08E+07
36911,-47.679,-5.4931,40.598,2.77E+07
36912,-47.274,-1.263,37.891,1.48E+08
36913,-27.743,-4.3015,45.825,1.07E+08
36914,-26.16,-6.2223,44.49,1.51E+08
36915,-28.122,-4.3468,40.289,1.42E+08
36916,-26.883,-6.4574,42.034,1.68E+08
36917,-25.866,-4.1387,43.066,1.73E+08
36918,-29.456,-6.2237,40.592,1.38E+08
36919,-30.261,-4.2664,41.231,1.12E+08
36920,-25.729,-4.1617,40.369,1.79E+08
36921,-29.631,-4.0741,43.81,1.05E+08
36922,-28.461,-6.4147,44.73,1.21E+08
36923,-29.611,-6.5096,42.707,1.28E+08
36924,-18.013,-9.5675,39.822,3.54E+08
36925,-20.219,-6.4917,41.472,3.00E+08
36926,-20.331,-8.6651,41.848,3.14E+08
36927,-23.111,-8.8586,38.157,2.96E+08
36928,-19.408,-6.3392,38.206,3.22E+08
36929,-23.304,-8.621,40.45,2.73E+08
36930,-22.287,-6.3023,41.482,2.37E+08
36931,-21.253,-9.6769,36.877,3.35E+08
36932,-22.15,-6.3253,38.785,2.66E+08
36933,-18.801,-9.3246,37.925,3.43E+08
36934,-21.04,-7.7728,36.683,2.97E+08
36935,-18.364,-7.0837,40.246,3.41E+08
36936,-17.44,-17.037,30.426,2.88E+08
36937,-17.005,-22.18,30.408,2.21E+08
36938,-15.659,-20.394,31.229,2.38E+08
36939,-15.195,-13.936,32.193,3.24E+08
36940,35.135,-15.196,-28.832,1.01E+08
36941,34.832,-11.065,-28.904,1.08E+08
36942,33.814,-12.674,-28.601,1.07E+08
36943,36.727,-15.731,-28.371,1.03E+08
36944,36.11,-12.006,-27.318,1.07E+08
36945,34.218,-13.877,-29.685,1.06E+08
36946,34.514,-14.565,-54.785,1.14E+07
36947,37.685,-12.21,-56.499,8.79E+06
36948,36.995,-12.923,-55.27,1.06E+07
36949,14.916,35.96,-48.93,7.30E+06
36950,12.349,35.806,-47.758,7.44E+06
36951,15.07,36.803,-47.322,5.15E+06
36952,7.2462,36.04,-47.888,6.88E+06
36953,4.4966,36.906,-47.624,6.11E+06
36954,4.8191,36.605,-50.406,8.79E+06
36955,5.016,32.967,-47.179,1.48E+07
36956,7.807,33.789,-60.683,7.66E+06
36957,12.959,36.054,-61.021,5.39E+06
36958,8.8331,35.819,-59.724,7.08E+06
36959,9.9795,36.29,-61.191,5.87E+06
36960,10.718,32.567,-60.689,9.68E+06
36961,-45.103,-8.4049,37.286,7.42E+07
36962,-46.777,-9.3346,39.438,1.03E+08
36963,35.35,-13.234,-16.19,1.44E+08
36964,35.292,-17.587,-16.461,1.45E+08
36965,37.059,-16.941,-17.827,1.62E+08
36966,36.126,-11.741,-17.975,1.52E+08
36967,33.844,-13.541,-17.856,1.30E+08
36968,34.714,-16.119,-20.794,1.27E+08
36969,33.499,-16.02,-18.298,1.28E+08
36970,35.868,-12.757,-19.821,1.41E+08
36971,35.911,-15.094,-16.624,1.51E+08
36972,34.09,-13.834,-20.309,1.29E+08
36973,36.94,-16.363,-20.5,1.33E+08
36974,36.796,-16.179,-16.631,1.67E+08
36975,34.442,-3.5296,-9.2393,1.06E+08
36976,34.152,-6.1225,-10.868,1.17E+08
36977,34.666,-3.7116,-12.329,1.28E+08
36978,33.052,-5.6322,-13.059,1.06E+08
36979,34.711,-4.166,-11.178,1.23E+08
36980,35.846,-6.7523,-18.319,1.61E+08
36981,35.375,-5.1813,-21.777,1.61E+08
36982,35.981,-4.2605,-16.043,1.65E+08
36983,35.587,-7.768,-20.165,1.50E+08
36984,34.367,-6.1811,-16.773,1.37E+08
36985,32.715,-5.8171,-19.013,1.34E+08
36986,33.684,-4.6018,-20.324,1.49E+08
36987,34.111,-6.9309,-19.82,1.42E+08
36988,36.614,-3.8555,-19.158,1.86E+08
36989,36.699,-3.9093,-21.446,1.84E+08
36990,-15.093,-22.98,31.489,1.98E+08
36991,-14.212,-24.941,31.967,1.61E+08
36992,-15.66,-26.938,31.349,1.41E+08
36993,-17.942,-27.279,29.645,1.61E+08
36994,29.673,-33.899,-18.991,7.56E+07
36995,30.253,-31.858,-17.99,8.94E+07
36996,27.461,-31.666,-21.736,8.98E+07
36997,29.313,-29.545,-19.473,1.03E+08
36998,33.596,-21.127,-15.101,1.42E+08
36999,32.335,-24.266,-14.56,1.25E+08
37000,32.789,-22.713,-14.519,1.35E+08
37001,31.802,-19.56,-16.938,1.32E+08
37002,12.718,37.573,-49.365,4.78E+06
37003,15.439,38.57,-48.929,2.70E+06
37004,14.906,38.163,-52.341,6.60E+06
37005,4.6913,35.356,-61.636,5.39E+06
37006,5.8801,34.839,-60.059,8.31E+06
37007,7.0265,35.311,-61.526,6.65E+06
37008,7.7648,31.588,-61.024,6.77E+06
37009,-8.2633,-8.6676,35.087,2.21E+08
37010,-5.5406,-4.2739,35.459,1.73E+08
37011,-7.6913,-4.0699,36.698,2.15E+08
37012,-6.256,-6.6175,36.222,1.94E+08
37013,-9.6146,-3.7239,36.144,2.79E+08
37014,-10.651,-5.9931,36.293,2.84E+08
37015,-9.4244,-4.7359,37.716,2.77E+08
37016,-8.4468,-6.5266,36.819,2.47E+08
37017,-10.017,-7.096,34.542,2.54E+08
37018,-17.512,-9.3721,42.299,3.36E+08
37019,-13.705,-10.635,38.93,3.69E+08
37020,-15.982,-10.032,38.376,3.82E+08
37021,-13.033,-9.4827,41.335,3.45E+08
37022,-15.545,-7.7906,40.697,3.69E+08
37023,-14.079,-8.3623,38.841,3.68E+08
37024,-14.991,-9.7343,42.083,3.61E+08
37025,-15.315,-10.91,39.382,4.10E+08
37026,-10.636,-12.596,34.339,2.79E+08
37027,-12.649,-12.194,35.635,3.36E+08
37028,-14.926,-11.591,35.081,3.37E+08
37029,-11.131,-14.442,33.96,2.75E+08
37030,-12.389,-11.024,33.795,3.02E+08
37031,-12.388,-15.353,33.397,2.92E+08
37032,-31.706,-8.3762,49.254,9.33E+07
37033,-36.329,-8.2313,46.964,8.22E+07
37034,-34.148,-6.6226,45.04,6.53E+07
37035,-34.967,-8.236,49.379,7.93E+07
37036,-32.418,-6.1301,46.099,6.74E+07
37037,-31.248,-8.4708,47.019,1.18E+08
37038,-33.434,-6.5513,48.142,5.23E+07
37039,-34.807,-8.5871,45.298,1.05E+08
37040,-34.967,-6.9262,46.842,5.77E+07
37041,-32.398,-8.5657,44.996,1.26E+08
37042,38.207,-9.2681,-57.693,7.91E+06
37043,15.281,37.471,-59.494,4.44E+06
37044,14.965,38.101,-55.72,7.87E+06
37045,-8.2563,-14.12,36.675,1.86E+08
37046,-5.3905,-11.774,35.251,1.87E+08
37047,-10.203,-11.398,36.291,2.90E+08
37048,-6.896,-14.064,35.081,1.88E+08
37049,-8.6849,-13.646,34.616,2.28E+08
37050,-6.182,-9.7492,36.131,1.92E+08
37051,-5.9041,-13.087,37.312,1.74E+08
37052,-7.8935,-11.5,37.359,2.31E+08
37053,-8.3728,-9.6583,36.728,2.38E+08
37054,-9.9429,-10.228,34.451,2.58E+08
37055,-12.865,-23.154,32.788,1.79E+08
37056,-11.443,-20.73,33.291,1.91E+08
37057,-12.72,-19.254,32.711,2.39E+08
37058,-10.562,-22.691,33.769,1.56E+08
37059,-9.6103,-25.333,34.199,1.06E+08
37060,-13.432,-27.112,32.648,1.22E+08
37061,35.751,-12.366,-10.848,1.49E+08
37062,35.358,-9.9028,-11.722,1.44E+08
37063,34.569,-13.275,-12.866,1.40E+08
37064,35.737,-9.9836,-15.461,1.53E+08
37065,33.454,-11.784,-15.341,1.36E+08
37066,35.522,-13.337,-14.109,1.53E+08
37067,34.257,-9.4124,-13.914,1.35E+08
37068,36.245,-11.684,-12.908,1.71E+08
37069,31.057,-34.116,-17.109,7.45E+07
37070,30.342,-37.891,-17.422,5.06E+07
37071,31.323,-36.049,-15.446,6.23E+07
37072,29.428,-37.897,-19.842,4.73E+07
37073,36.612,-19.537,-15.583,1.60E+08
37074,34.038,-21.769,-13.635,1.39E+08
37075,36.053,-19.818,-12.287,1.68E+08
37076,34.512,-17.628,-13.137,1.43E+08
37077,33.052,-18.616,-16.054,1.38E+08
37078,35.464,-17.69,-14.38,1.54E+08
37079,36.29,-20.04,-14.179,1.77E+08
37080,36.349,-18.775,-14.387,1.68E+08
37081,32.778,-24.908,-13.093,1.24E+08
37082,32.707,-28.497,-11.977,1.11E+08
37083,33.427,-26.364,-11.04,1.23E+08
37084,31.04,-26.955,-16.104,1.15E+08
37085,33.08,-25.624,-11.382,1.21E+08
37086,7.4019,38.285,-47.928,5.08E+06
37087,12.872,38.416,-47.756,3.13E+06
37088,4.9748,38.85,-50.446,5.62E+06
37089,6.1017,37.709,-56.164,6.21E+06
37090,36.771,-2.0686,-58.238,3.67E+06
37091,12.179,37.576,-61.864,3.52E+06
37092,-50.711,-8.6218,46.664,7.16E+07
37093,-50.557,-5.795,47.348,2.89E+07
37094,-46.583,-5.5858,45.53,3.08E+07
37095,-46.895,-8.1505,46.34,5.98E+07
37096,-49.545,-5.3792,44.931,3.20E+07
37097,-48.883,-7.8906,48.2,5.22E+07
37098,-48.3,-8.1358,43.588,6.49E+07
37099,-47.117,-5.5258,47.196,3.17E+07
37100,-24.87,-3.4541,50.118,1.69E+08
37101,-26.684,-4.2203,51.765,9.34E+07
37102,-28.673,-6.0884,50.252,7.12E+07
37103,-25.914,-5.9905,47.777,1.18E+08
37104,-25.619,-3.9069,46.353,1.51E+08
37105,-29.385,-3.8423,47.097,1.01E+08
37106,-28.215,-6.183,48.017,8.75E+07
37107,-25.68,-5.8253,49.961,9.82E+07
37108,-28.599,-3.7244,51.354,1.04E+08
37109,-30.401,-4.2635,49.14,8.91E+07
37110,-24.869,-4.4186,47.99,1.62E+08
37111,-2.12E-04,-3.0119,35.737,1.49E+08
37112,-4.8946,-2.8079,36.979,1.62E+08
37113,-1.6597,-3.5191,37.795,1.20E+08
37114,-3.4593,-5.3555,36.502,1.45E+08
37115,-1.3241,-5.1651,35.867,1.27E+08
37116,-3.2168,-2.4892,37.184,1.30E+08
37117,-41.86,-6.3137,49.159,2.83E+07
37118,-38.887,-3.8186,49.251,7.74E+07
37119,-40.676,-4.0025,45.284,7.07E+07
37120,-40.109,-6.0464,47.154,3.08E+07
37121,-42.585,-3.8178,46.472,7.40E+07
37122,-42.897,-6.3825,47.282,2.66E+07
37123,-41.76,-6.2622,45.205,2.79E+07
37124,-41.22,-4.2144,49.459,6.55E+07
37125,-43.119,-3.7579,48.139,7.40E+07
37126,-38.748,-4.7413,47.032,5.24E+07
37127,-16.184,-37.895,30.788,6.22E+07
37128,-19.739,-40.568,28.949,3.84E+07
37129,39.019,-19.313,-16.438,2.07E+08
37130,38.259,-18.312,-19.622,1.58E+08
37131,38.057,-19.393,-15.545,1.99E+08
37132,38.115,-18.129,-15.753,1.90E+08
37133,32.363,-31.304,-13.464,9.51E+07
37134,30.697,-29.762,-17.591,1.02E+08
37135,31.904,-34.008,-14.446,7.62E+07
37136,35.246,-21.405,-11.705,1.50E+08
37137,34.569,-22.544,-9.6838,1.30E+08
37138,33.705,-19.214,-12.555,1.32E+08
37139,33.822,-20.169,-10.55,1.27E+08
37140,35.483,-21.626,-13.597,1.56E+08
37141,33.533,-24.071,-11.342,1.28E+08
37142,36.979,-2.3309,-4.3227,1.38E+08
37143,36.23,-5.0289,-5.082,1.21E+08
37144,36.046,-5.7354,-8.1409,1.28E+08
37145,36.605,-3.7789,-8.4518,1.41E+08
37146,37.222,-2.5985,-8.0199,1.58E+08
37147,-9.3226,1.7518,42.869,4.81E+08
37148,-7.0817,0.33445,41.852,3.89E+08
37149,-8.4525,-1.1183,39.694,3.45E+08
37150,-9.3474,-1.1912,42.899,3.69E+08
37151,-10.376,-0.77227,39.141,4.17E+08
37152,-10.186,-1.7843,40.712,4.00E+08
37153,36.902,-16.354,-9.1881,1.67E+08
37154,36.149,-10.792,-8.8944,1.45E+08
37155,35.361,-14.164,-10.038,1.42E+08
37156,35.478,-15.119,-8.0331,1.31E+08
37157,36.009,-12.291,-5.2374,1.24E+08
37158,37.078,-13.646,-6.5462,1.42E+08
37159,37.037,-12.573,-10.08,1.71E+08
37160,36.914,-15.83,-7.7495,1.50E+08
37161,37.081,-11.534,-6.7739,1.54E+08
37162,38.11,-12.878,-6.7477,2.03E+08
37163,5.7173,37.385,-60.677,4.23E+06
37164,6.8637,37.857,-62.144,2.72E+06
37165,-20.797,-5.0301,49.885,2.02E+08
37166,-18.728,-4.9023,48.727,3.51E+08
37167,-21.84,-7.5665,47.544,2.30E+08
37168,-19.478,-5.6723,46.11,2.99E+08
37169,-19.59,-7.8458,46.485,2.80E+08
37170,-21.607,-7.4013,49.728,1.96E+08
37171,-17.465,-6.2941,47.637,3.40E+08
37172,-20.795,-5.9946,47.757,2.53E+08
37173,-24.057,-3.6046,52.771,1.52E+08
37174,-20.175,-2.7106,49.966,3.32E+08
37175,-23.054,-5.2096,50.967,1.36E+08
37176,-22.242,-3.8029,48.996,1.97E+08
37177,-8.1886,-22.908,34.702,1.26E+08
37178,-8.3539,-20.905,36.282,1.26E+08
37179,-8.7319,-18.354,36.313,1.49E+08
37180,-7.3716,-18.297,34.719,1.59E+08
37181,-9.1604,-17.879,34.255,1.99E+08
37182,-6.925,-20.246,34.305,1.49E+08
37183,-10.418,-18.79,33.692,2.14E+08
37184,-7.4063,-28.577,34.653,8.02E+07
37185,-7.402,-23.548,36.712,1.04E+08
37186,-4.435,-24.363,35.402,9.57E+07
37187,-5.446,-27.193,35.181,9.11E+07
37188,-5.9732,-22.888,34.735,1.08E+08
37189,36.585,-20.593,-8.3356,1.51E+08
37190,35.72,-17.263,-11.207,1.57E+08
37191,35.837,-18.219,-9.2016,1.46E+08
37192,36.672,-17.325,-12.45,1.73E+08
37193,37.155,-21.817,-8.7259,1.65E+08
37194,37.498,-19.675,-12.249,1.98E+08
37195,35.548,-22.121,-9.994,1.43E+08
37196,37.273,-18.93,-8.9179,1.68E+08
37197,37.557,-18.411,-12.456,1.89E+08
37198,-25.898,-6.7775,54.304,4.55E+07
37199,-27.45,-4.2225,56.319,7.76E+07
37200,-28.204,-6.0854,54.951,4.26E+07
37201,-27.86,-6.2389,52.905,4.63E+07
37202,-24.868,-5.9758,52.614,7.10E+07
37203,-27.787,-3.8749,54.007,9.58E+07
37204,5.22,-3.5254,35.292,2.08E+08
37205,3.7634,-5.3286,35.398,1.56E+08
37206,1.084,-3.5191,37.792,1.44E+08
37207,4.116,-3.3872,37.791,1.81E+08
37208,1.4196,-5.165,35.864,1.52E+08
37209,2.929,-5.4778,37.534,1.42E+08
37210,-31.176,-4.1465,56.113,7.35E+07
37211,-31.93,-6.0095,54.745,3.76E+07
37212,-35.898,-4.1051,54.788,7.41E+07
37213,-31.587,-6.1629,52.699,4.14E+07
37214,-34.988,-3.7902,52.507,8.31E+07
37215,-33.682,-3.9333,55.814,7.90E+07
37216,-34.848,-6.0227,52.824,3.71E+07
37217,-34.487,-6.2814,55.132,3.46E+07
37218,-31.513,-3.7989,53.801,9.12E+07
37219,-33.314,-4.3381,51.587,6.98E+07
37220,-6.4711,-34.036,34.888,5.78E+07
37221,-3.1364,-35.853,35.252,6.80E+07
37222,-7.2279,-36.129,34.332,4.12E+07
37223,-7.0276,-38.596,34.068,4.57E+07
37224,-9.726,-32.415,33.504,6.64E+07
37225,-5.6155,-30.219,34.702,7.43E+07
37226,-8.3327,-33.696,33.617,6.72E+07
37227,38.443,-17.266,-2.2613,1.17E+08
37228,36.643,-16.716,-0.9744,1.28E+08
37229,36.135,-19.223,-4.9297,1.35E+08
37230,36.191,-18.802,-2.493,1.36E+08
37231,35.387,-16.849,-5.7957,1.27E+08
37232,35.919,-14.021,-2.9999,1.28E+08
37233,37.486,-18.368,-3.8406,1.43E+08
37234,36.988,-15.376,-4.3088,1.33E+08
37235,36.823,-17.56,-5.512,1.36E+08
37236,35.474,-15.634,-1.9645,1.30E+08
37237,33.809,-28.4,-9.8837,1.17E+08
37238,33.852,-31.304,-8.6479,1.04E+08
37239,32.629,-33.237,-11.802,8.62E+07
37240,36.873,-4.2173,-2.8921,1.30E+08
37241,36.52,-4.24,-0.23139,1.13E+08
37242,36.591,-1.3577,0.99283,1.15E+08
37243,35.771,-6.938,-0.9907,1.08E+08
37244,35.94,-7.6219,-6.7102,1.27E+08
37245,35.8,-9.1216,-3.0533,1.17E+08
37246,36.872,-8.3643,-4.5897,1.38E+08
37247,-52.148,-6.6053,48.401,3.05E+07
37248,-53.276,-9.3077,49.646,8.43E+07
37249,-50.475,-8.7009,49.253,6.90E+07
37250,-53.122,-6.4808,50.33,2.88E+07
37251,-53.738,-3.9687,51.211,5.93E+07
37252,-49.334,-3.8531,51.239,6.69E+07
37253,-50.983,-3.3627,46.668,7.48E+07
37254,-50.321,-5.8741,49.937,2.87E+07
37255,-51.515,-4.0881,51.56,5.92E+07
37256,-48.555,-3.5093,48.933,7.45E+07
37257,-28.231,-8.4921,54.837,8.71E+07
37258,-27.887,-8.6456,52.791,9.78E+07
37259,-26.881,-9.4467,56.151,1.20E+08
37260,-24.894,-8.3825,52.501,1.04E+08
37261,-18.856,-3.3528,46.191,3.60E+08
37262,-16.844,-3.9746,47.718,3.88E+08
37263,-20.174,-3.6751,47.838,3.40E+08
37264,-15.97,-2.3191,47.948,5.24E+08
37265,-11.949,-6.7445,47.867,2.64E+08
37266,-12.933,-6.1177,45.808,3.18E+08
37267,-11.786,-8.7052,45.115,2.77E+08
37268,-10.731,-9.078,47.267,2.24E+08
37269,-14.14,-7.043,47.231,3.15E+08
37270,-10.553,-9.602,49.798,1.98E+08
37271,-13.744,-8.9569,45.864,2.93E+08
37272,-10.38,-7.6366,49.608,2.46E+08
37273,-8.5194,5.4334,45.415,3.86E+08
37274,-8.2393,3.1182,47.868,4.59E+08
37275,-6.6603,4.0131,45.207,4.59E+08
37276,-6.5445,1.7189,43.55,3.67E+08
37277,-7.2984,1.8789,46.135,4.20E+08
37278,-8.8102,0.19327,44.598,3.28E+08
37279,-40.423,-8.1379,57.412,5.19E+07
37280,-44.149,-5.7862,54.302,3.39E+07
37281,-40.049,-5.818,55.39,3.62E+07
37282,-42.111,-7.9982,53.017,4.95E+07
37283,-42.436,-5.5345,55.539,3.94E+07
37284,-38.998,-7.7356,53.427,4.88E+07
37285,-38.637,-7.9943,55.734,5.17E+07
37286,-41.809,-6.172,57.667,2.74E+07
37287,-41.471,-5.8989,53.316,3.40E+07
37288,-43.915,-8.2916,54.96,5.52E+07
37289,-43.175,-7.2022,56.762,2.98E+07
37290,0.64096,-18.166,35.857,7.46E+07
37291,-1.5182,-13.832,35.652,1.14E+08
37292,-3.0237,-16.123,35.482,1.13E+08
37293,0.9544,-13.931,35.623,8.82E+07
37294,-2.0318,-15.146,37.713,1.00E+08
37295,-1.7024,-17.249,36.6,8.99E+07
37296,1.7568,-16.266,35.997,6.97E+07
37297,0.55896,-16.95,38.075,8.06E+07
37298,0.62713,-14.889,37.672,7.92E+07
37299,-8.5578,-11.975,46.699,1.84E+08
37300,-8.6643,-14.493,44.245,1.71E+08
37301,-8.3801,-12.499,49.23,1.46E+08
37302,-7.1936,-15.051,48.934,1.25E+08
37303,-7.0289,-16.112,45.78,1.35E+08
37304,-6.6394,-13.123,45.274,1.55E+08
37305,-6.3551,-12.501,47.262,1.33E+08
37306,-5.5684,-14.591,47.023,1.21E+08
37307,-8.6683,-16.043,45.635,1.45E+08
37308,-8.1928,-16.582,47.319,1.33E+08
37309,-9.7998,-14.946,44.636,1.42E+08
37310,-9.9793,-3.1018,48.943,3.84E+08
37311,-12.183,-4.1426,45.842,3.37E+08
37312,-11.036,-6.7301,45.148,2.73E+08
37313,-9.9806,-7.1029,47.3,2.22E+08
37314,-13.39,-5.0679,47.265,3.37E+08
37315,-10.017,-3.7595,46.264,2.73E+08
37316,-8.8423,-4.8539,48.075,2.47E+08
37317,-9.6295,-5.6615,49.641,2.64E+08
37318,-12.516,-3.4124,47.495,4.35E+08
37319,-11.811,-3.6499,48.624,4.81E+08
37320,36.315,-25.409,-6.8449,1.36E+08
37321,34.708,-26.724,-6.2583,1.31E+08
37322,34.572,-29.171,-7.7115,1.18E+08
37323,35.788,-25.224,-8.0213,1.40E+08
37324,34.182,-25.527,-9.2894,1.28E+08
37325,-15.709,38.389,-60.499,1.71E+06
37326,-4.6002,-22.36,36.983,9.60E+07
37327,-8.3909,-22.36,40.366,1.01E+08
37328,-4.7226,-21.808,39.396,1.31E+08
37329,-7.9453,-18.993,38.323,1.18E+08
37330,-6.585,-18.937,36.729,1.17E+08
37331,-8.4483,-20.358,40.167,1.24E+08
37332,-7.1828,-21.61,40.453,1.18E+08
37333,-5.2637,-20.063,37.848,1.05E+08
37334,-6.1384,-20.885,36.315,1.06E+08
37335,38.724,-17.267,0.30909,1.08E+08
37336,42.179,-17.723,0.28272,8.82E+07
37337,40.508,-20.256,-0.66077,1.04E+08
37338,38.272,-19.353,-1.2095,1.16E+08
37339,40.362,-17.788,1.8407,9.63E+07
37340,39.568,-18.919,-2.5571,1.35E+08
37341,40.389,-19.636,1.2419,9.71E+07
37342,41.155,-16.093,0.17487,9.96E+07
37343,36.296,-16.668,4.1063,1.15E+08
37344,36.075,-18.928,2.8373,1.24E+08
37345,36.472,-18.803,7.74E-02,1.30E+08
37346,36.052,-14.196,1.9094,1.22E+08
37347,38.562,-17.239,3.1275,1.05E+08
37348,38.589,-19.086,2.5287,1.09E+08
37349,39.355,-15.544,1.4617,9.09E+07
37350,35.755,-15.635,0.60585,1.24E+08
37351,35.562,-15.994,2.4811,1.21E+08
37352,-53.146,-8.6544,54.247,6.27E+07
37353,-54.866,-6.6711,52.456,2.74E+07
37354,-56.008,-8.7756,54.045,6.76E+07
37355,-51.448,-8.5765,51.182,6.38E+07
37356,-52.643,-6.7905,52.805,2.55E+07
37357,-30.459,-6.4537,59.146,3.54E+07
37358,-30.632,-3.6475,60.076,7.75E+07
37359,-29.782,-5.9371,56.852,3.81E+07
37360,-31.534,-3.8609,57.921,7.81E+07
37361,-28.433,-6.8917,58.165,4.45E+07
37362,-29.365,-3.7266,55.908,8.90E+07
37363,2.1524,1.5934,44.74,3.15E+08
37364,3.5047,-0.39295,43.1,2.89E+08
37365,-1.5915,-0.35045,42.779,2.63E+08
37366,0.27258,-2.5144,41.437,1.72E+08
37367,3.3046,-2.3826,41.436,2.15E+08
37368,-3.22E-02,0.29315,44.415,2.97E+08
37369,2.3363,-1.1051,44.953,2.50E+08
37370,2.181,-2.6322,43.243,2.05E+08
37371,-1.1544,-1.9705,44.419,2.16E+08
37372,0.47011,-4.1564,43.556,1.61E+08
37373,0.801,-2.154,44.921,2.20E+08
37374,10.408,-4.8422,34.802,2.99E+08
37375,8.6249,-6.879,34.475,1.86E+08
37376,8.5485,-5.9189,36.962,2.21E+08
37377,6.24,-5.8421,34.956,1.84E+08
37378,6.5925,-3.9008,37.349,2.16E+08
37379,9.3801,-3.899,36.301,2.99E+08
37380,-0.1281,-25.322,35.633,1.11E+08
37381,-1.7556,-22.624,38.087,1.29E+08
37382,4.67E-02,-21.796,35.795,9.28E+07
37383,-2.6442,-26.006,35.452,9.41E+07
37384,-2.2967,-20.879,36.538,9.56E+07
37385,-3.1714,-21.701,35.005,1.03E+08
37386,-0.15689,-23.586,36.793,1.37E+08
37387,-34.355,-6.3998,60.258,3.22E+07
37388,-34.528,-3.5936,61.188,7.69E+07
37389,-35.82,-6.3895,61.995,3.08E+07
37390,-36.2,-3.6499,63.13,7.29E+07
37391,-38.02,-6.2988,60.028,3.01E+07
37392,-37.646,-3.9788,58.007,7.23E+07
37393,-35.43,-3.807,59.033,7.75E+07
37394,-36.235,-6.1552,58.35,3.21E+07
37395,-37.931,-5.3452,62.232,3.62E+07
37396,-39.407,-4.3328,60.283,6.28E+07
37397,0.19256,-29.36,35.279,1.11E+08
37398,-2.3235,-30.045,35.098,9.42E+07
37399,0.8816,-31.835,35.008,9.37E+07
37400,-0.94915,-33.245,34.934,7.74E+07
37401,35.359,-8.3813,4.1806,9.94E+07
37402,35.488,-4.0784,2.8942,1.07E+08
37403,35.446,-9.1443,-0.39259,1.15E+08
37404,35.298,-9.3177,1.9464,1.21E+08
37405,-32.063,-6.0271,61.002,3.14E+07
37406,-33.355,-8.823,61.81,7.88E+07
37407,-31.213,-8.3167,57.778,7.13E+07
37408,-35.555,-8.7323,59.842,7.27E+07
37409,-32.965,-6.2405,58.847,3.15E+07
37410,-33.77,-8.5887,58.165,7.21E+07
37411,-29.864,-9.2713,59.092,1.04E+08
37412,-6.6435,-21.057,47.054,1.10E+08
37413,-8.6747,-22.323,43.874,1.19E+08
37414,-5.766,-21.732,45.087,1.28E+08
37415,-8.7321,-20.321,43.675,1.34E+08
37416,-6.9196,-19.591,45.086,1.20E+08
37417,-7.4665,-21.574,43.962,1.27E+08
37418,-8.5591,-19.522,44.94,1.27E+08
37419,-9.0417,-22.213,47.429,1.01E+08
37420,-8.0835,-20.061,46.625,1.19E+08
37421,-9.8885,-21.456,43.554,1.23E+08
37422,-8.1706,10.061,47.398,2.20E+08
37423,-5.8907,8.6442,47.053,3.34E+08
37424,-7.9733,5.4154,48.715,3.54E+08
37425,-6.3942,6.3103,46.054,3.63E+08
37426,-7.7212,7.5531,48.645,2.79E+08
37427,-6.1369,6.3355,48.071,3.44E+08
37428,-53.763,-6.1422,55.128,2.24E+07
37429,-54.905,-8.2467,56.717,5.20E+07
37430,-53.692,-7.0854,59.126,3.63E+07
37431,-51.249,-6.5109,59.503,3.01E+07
37432,-52.799,-6.1366,57.223,2.38E+07
37433,-50.345,-8.0476,53.854,4.81E+07
37434,-50.141,-6.1062,57.442,2.07E+07
37435,-51.83,-8.4693,59.482,5.45E+07
37436,-50.273,-8.1366,58.256,4.45E+07
37437,-51.54,-6.2616,55.477,2.05E+07
37438,-49.124,-8.532,55.814,5.88E+07
37439,37.171,-24.862,-2.8837,1.43E+08
37440,36.146,-25.234,1.8328,1.54E+08
37441,35.733,-23.157,1.5269,1.38E+08
37442,36.074,-23.453,-3.6698,1.40E+08
37443,38.366,-23.935,-0.68431,1.17E+08
37444,36.13,-23.032,-1.233,1.43E+08
37445,35.563,-26.178,-2.297,1.41E+08
37446,35.829,-27.084,0.23794,1.50E+08
37447,-56.624,-6.2634,54.926,2.51E+07
37448,-57.253,-4.2093,55.555,5.46E+07
37449,-54.518,-4.1533,55.432,5.44E+07
37450,-53.26,-4.2783,53.686,5.48E+07
37451,7.0298,-21.375,44.215,7.07E+07
37452,7.369,-22.207,38.901,9.79E+07
37453,9.6258,-22.554,40.936,6.40E+07
37454,5.4222,-23.06,39.078,1.09E+08
37455,2.0475,-21.751,41.597,1.20E+08
37456,3.8498,-20.922,39.305,8.70E+07
37457,3.9783,-21.576,43.843,1.07E+08
37458,7.539,-21.383,42.816,6.63E+07
37459,6.7506,-20.089,39.296,8.00E+07
37460,4.9656,-19.022,39.445,7.68E+07
37461,5.1785,-19.542,43.87,6.89E+07
37462,6.3663,-19.164,41.641,6.73E+07
37463,3.7678,-19.706,41.523,8.48E+07
37464,3.6461,-22.712,40.303,1.33E+08
37465,-6.5319,-20.519,50.571,8.80E+07
37466,-3.8167,-19.779,51.523,7.63E+07
37467,-4.2748,-21.318,46.833,1.18E+08
37468,-5.5931,-18.116,49.985,9.40E+07
37469,-2.8559,-20.064,48.753,9.35E+07
37470,-5.4284,-19.177,46.831,1.06E+08
37471,-3.9679,-17.657,48.074,9.41E+07
37472,-7.5505,-21.799,49.175,8.50E+07
37473,-6.5923,-19.647,48.37,1.03E+08
37474,8.4136,-2.7098,42.951,3.11E+08
37475,7.6485,-0.55051,41.882,3.67E+08
37476,9.5641,-3.2151,41.218,3.46E+08
37477,7.4484,-2.5401,40.217,2.98E+08
37478,10.236,-2.5383,39.17,3.96E+08
37479,-9.272,-21.173,42.24,1.28E+08
37480,-8.0064,-22.425,42.527,1.21E+08
37481,-10.428,-22.307,42.119,1.17E+08
37482,37.004,-23.141,-5.5286,1.40E+08
37483,39.296,-23.623,-2.5431,1.22E+08
37484,37.06,-22.72,-3.0918,1.39E+08
37485,36.494,-25.866,-4.1559,1.34E+08
37486,38.356,-22.286,-4.4395,1.52E+08
37487,39.519,-24.181,-4.1766,1.14E+08
37488,37.574,-24.366,-5.9189,1.51E+08
37489,35.484,-13.21,6.6539,1.01E+08
37490,34.896,-16.689,8.7142,1.07E+08
37491,34.946,-18.879,7.95,1.19E+08
37492,35.447,-18.878,5.3477,1.21E+08
37493,37.305,-19.354,7.2897,1.18E+08
37494,37.934,-17.188,5.6379,9.73E+07
37495,37.344,-15.107,7.4967,9.08E+07
37496,35.072,-14.733,8.2952,1.00E+08
37497,37.988,-17.216,7.8803,9.76E+07
37498,34.933,-15.944,4.9915,1.18E+08
37499,36.784,-1.3217,5.0312,7.79E+07
37500,37.332,-2.5634,6.7307,5.69E+07
37501,38.824,-1.9586,6.363,7.04E+07
37502,-33.528,-6.0168,62.739,3.08E+07
37503,-33.908,-3.2772,63.874,7.87E+07
37504,-33.138,-3.4343,59.777,8.33E+07
37505,11.704,-13.608,36.679,1.89E+08
37506,11.264,-16.658,38.024,1.70E+08
37507,9.8352,-11.615,36.682,1.55E+08
37508,9.3121,-14.341,37.027,1.23E+08
37509,9.7588,-10.655,39.169,2.05E+08
37510,11.557,-11.434,37.608,2.51E+08
37511,7.9717,-12.758,38.26,1.26E+08
37512,9.4898,-11.702,41.01,1.87E+08
37513,7.343,-12.451,40.766,1.27E+08
37514,8.4385,-15.205,39.926,1.21E+08
37515,9.4935,-14.143,41.197,1.61E+08
37516,8.6349,-18.491,52.029,8.35E+07
37517,7.6397,-15.834,54.656,8.86E+07
37518,7.3617,-12.937,55.414,9.62E+07
37519,6.8919,-16.763,53.127,7.91E+07
37520,8.0856,-15.687,49.375,1.13E+08
37521,7.5427,-13.173,49.389,1.23E+08
37522,7.0395,-11.968,53.621,1.13E+08
37523,5.5508,-14.343,53.76,8.82E+07
37524,6.1358,-15.753,51.088,8.25E+07
37525,5.7089,-12.907,51.76,1.04E+08
37526,7.8407,-12.246,51.627,1.35E+08
37527,-7.5987,-18.878,54.601,6.85E+07
37528,-5.1962,-19.654,53.294,6.38E+07
37529,-6.9727,-17.991,51.756,8.85E+07
37530,-8.93,-21.674,50.946,7.68E+07
37531,-7.9719,-19.522,50.142,9.76E+07
37532,-7.265,-1.5696,56.129,3.41E+08
37533,-7.5297,0.63294,52.449,4.13E+08
37534,-8.0628,-1.6343,51.858,4.61E+08
37535,-6.8649,0.78205,55.41,3.59E+08
37536,-6.7558,-3.8703,55.483,3.35E+08
37537,-5.4292,-1.9683,54.649,3.81E+08
37538,-5.0862,-2.4426,52.33,3.61E+08
37539,-5.6678,-0.28652,53.052,4.14E+08
37540,-5.7166,-4.4408,53.878,3.26E+08
37541,-7.713,-4.194,52.556,3.35E+08
37542,3.1242,-26.08,35.527,1.34E+08
37543,-1.1391,-28.152,35.412,1.13E+08
37544,2.066,-29.942,35.321,1.16E+08
37545,1.3482,-25.732,36.753,1.54E+08
37546,-43.39,-6.3886,63.486,2.57E+07
37547,-46.237,-8.1816,63.17,4.89E+07
37548,-45.221,-6.3395,61.968,2.57E+07
37549,-43.801,-8.219,64.443,4.96E+07
37550,-41.763,-8.4116,60.876,5.40E+07
37551,-45.69,-6.316,64.145,3.09E+07
37552,-41.673,-7.4581,63.08,3.26E+07
37553,-46.404,-8.1698,60.867,4.39E+07
37554,-43.149,-6.4457,61.132,2.17E+07
37555,-44.515,-7.4759,60.226,3.04E+07
37556,4.8213,-39.478,34.264,8.48E+07
37557,5.0214,-41.229,33.697,1.19E+08
37558,34.83,-35.307,3.1884,9.96E+07
37559,35.297,-31.872,0.90845,1.26E+08
37560,34.952,-32.894,-0.85324,1.08E+08
37561,-58.395,-6.3138,57.144,3.01E+07
37562,-56.554,-7.2067,58.924,4.12E+07
37563,-59.248,-8.0893,59.039,5.34E+07
37564,-55.66,-6.2578,57.021,2.62E+07
37565,-35.2,-6.0731,64.682,2.91E+07
37566,-35.79,-8.8675,65.962,7.51E+07
37567,-37.02,-8.722,61.579,6.87E+07
37568,-36.931,-7.7684,63.783,4.68E+07
37569,-7.1416,-9.5052,58.487,1.25E+08
37570,-7.5933,-11.188,54.804,1.57E+08
37571,-7.7705,-10.125,53.692,1.68E+08
37572,-6.6398,-7.8355,56.429,1.98E+08
37573,-7.4367,-11.028,56.911,1.35E+08
37574,-4.8091,-11.468,55.77,1.39E+08
37575,-4.8349,-8.9739,57.075,1.68E+08
37576,-5.8239,-10.523,53.915,1.55E+08
37577,-5.6006,-8.406,54.824,1.96E+08
37578,-7.597,-8.1592,53.502,2.15E+08
37579,8.8455,-21.879,48.718,6.55E+07
37580,9.0918,-22.142,47.243,6.07E+07
37581,6.2217,-21.068,47.445,6.64E+07
37582,8.2962,-19.076,46.064,7.90E+07
37583,5.0352,-21.522,45.364,8.05E+07
37584,8.5959,-21.329,44.338,6.20E+07
37585,6.2354,-19.488,45.392,5.49E+07
37586,7.4232,-19.11,43.162,5.82E+07
37587,9.2191,-22.194,45.164,5.72E+07
37588,5.3981,2.7633,46.851,3.39E+08
37589,7.5536,2.7006,49.148,2.66E+08
37590,7.5155,-1.3823,46.28,2.59E+08
37591,6.7505,0.77701,45.212,3.15E+08
37592,7.538,0.2275,49.111,2.56E+08
37593,7.3131,3.3303,46.746,3.23E+08
37594,5.582,6.48E-02,47.064,2.73E+08
37595,5.7851,1.4672,49.526,2.85E+08
37596,8.5811,2.3195,45.918,3.57E+08
37597,34.166,-39.822,-6.0152,4.50E+07
37598,48.335,-21.546,4.5302,7.99E+07
37599,46.694,-19.317,3.9114,6.85E+07
37600,44.695,-19.643,2.5968,6.38E+07
37601,43.023,-22.176,1.6533,6.50E+07
37602,42.877,-19.708,4.1547,5.89E+07
37603,45.005,-20.931,5.6231,6.71E+07
37604,42.904,-21.556,3.5559,6.28E+07
37605,44.103,-18.656,4.4179,5.53E+07
37606,35.356,-25.414,7.0232,1.68E+08
37607,35.138,-23.216,6.9868,1.44E+08
37608,35.639,-23.216,4.3846,1.46E+08
37609,38.272,-23.994,2.1733,1.21E+08
37610,37.497,-23.691,6.3265,1.46E+08
37611,38.153,-23.374,4.076,1.29E+08
37612,35.308,-28.043,5.3726,1.55E+08
37613,35.735,-27.144,3.0956,1.57E+08
37614,37.251,-7.9635,7.5062,6.84E+07
37615,34.356,-10.079,9.6142,8.46E+07
37616,34.878,-7.6182,8.2429,7.33E+07
37617,35.24,-10.738,4.457,1.07E+08
37618,37.161,-11.699,7.5339,8.06E+07
37619,34.888,-11.325,8.3324,8.95E+07
37620,36.594,-9.4799,8.8044,7.85E+07
37621,35.978,-6.7406,7.1042,6.63E+07
37622,34.75,-12.536,5.0288,1.08E+08
37623,-57.183,-5.1525,59.553,4.61E+07
37624,-59.877,-6.0351,59.668,3.63E+07
37625,-56.289,-4.2036,57.65,5.47E+07
37626,-60.827,-3.9123,59.595,5.78E+07
37627,-2.4366,-14.171,61.438,6.64E+07
37628,-0.12685,-14.384,61.23,6.61E+07
37629,-2.3084,-14.872,60.237,5.81E+07
37630,-0.64856,-10.752,61.529,1.24E+08
37631,-3.1662,-12.767,62.393,6.65E+07
37632,-2.6475,-10.441,61.788,1.09E+08
37633,0.63679,-12.862,60.644,8.41E+07
37634,-0.10055,-14.9,59.342,5.78E+07
37635,-2.0064,-13.034,58.541,8.96E+07
37636,-2.0322,-10.54,59.846,1.30E+08
37637,-0.1087,-11.553,58.976,1.09E+08
37638,-2.4733,-14.164,62.14,6.65E+07
37639,-3.5534,-13.356,60.62,6.65E+07
37640,0.2928,-13.325,62.002,7.80E+07
37641,-1.4936,-13.68,61.829,7.47E+07
37642,14.798,-4.8412,33.328,4.52E+08
37643,14.708,-7.5876,33.347,3.63E+08
37644,11.336,-7.6823,34.426,2.53E+08
37645,11.26,-6.7222,36.914,3.01E+08
37646,13.058,-7.5011,35.352,3.50E+08
37647,12.091,-4.7022,36.253,3.85E+08
37648,16.387,-6.7834,31.921,4.37E+08
37649,18.997,-3.7573,30.064,5.52E+08
37650,17.874,-5.5475,30.805,4.98E+08
37651,-58.035,-6.928,61.447,4.33E+07
37652,-56.304,-6.5006,63.508,4.67E+07
37653,-53.939,-6.5266,64,5.00E+07
37654,-52.898,-5.4709,61.71,4.58E+07
37655,-54.448,-5.0965,59.43,4.38E+07
37656,-53.479,-7.4293,61.689,4.46E+07
37657,48.27,-12.237,4.9163,5.33E+07
37658,46.764,-15.276,3.8927,5.95E+07
37659,44.765,-15.602,2.5781,6.05E+07
37660,45.018,-11.635,2.2117,3.73E+07
37661,44.172,-14.615,4.3992,5.31E+07
37662,47.144,-14.751,6.2308,5.51E+07
37663,45.914,-11.874,5.0798,4.54E+07
37664,43.74,-13.973,2.4702,6.20E+07
37665,44.95,-14.03,5.8575,4.93E+07
37666,10.728,-24.451,34.485,1.27E+08
37667,11.022,-23.332,37.144,7.57E+07
37668,10.036,-21.389,34.084,1.32E+08
37669,10.588,-21.395,35.946,1.07E+08
37670,6.8183,-23.839,35.285,1.30E+08
37671,8.9352,-22.161,39.024,7.68E+07
37672,8.1468,-20.867,35.504,1.05E+08
37673,9.8506,-22.701,50.225,6.81E+07
37674,6.9806,-21.626,50.428,6.83E+07
37675,7.8613,-20.71,52.799,6.21E+07
37676,9.055,-19.634,49.046,8.47E+07
37677,7.1052,-19.7,50.76,5.97E+07
37678,14.794,-11.618,33.017,2.66E+08
37679,14.387,-15.813,33.133,1.76E+08
37680,15.931,-14.088,32.344,2.34E+08
37681,12.299,-16.749,33.577,1.27E+08
37682,12.851,-16.756,35.439,1.79E+08
37683,11.422,-11.713,34.097,1.64E+08
37684,10.899,-14.439,34.442,1.31E+08
37685,13.144,-11.531,35.023,2.58E+08
37686,-7.8947,-16.044,59.493,5.56E+07
37687,-4.8835,-18.138,55.553,5.65E+07
37688,-5.187,-17.105,58.085,4.04E+07
37689,-7.6692,-14.987,55.423,1.00E+08
37690,-7.5126,-14.827,57.53,7.63E+07
37691,-6.6599,-16.476,54.015,8.57E+07
37692,-4.885,-15.267,56.389,6.91E+07
37693,-6.432,-15.589,58.468,4.94E+07
37694,7.3437,-6.1382,59.195,1.05E+08
37695,6.8907,-2.3916,56.993,1.48E+08
37696,7.0164,-5.8459,54.39,1.49E+08
37697,6.9933,-8.5204,57.957,1.03E+08
37698,6.541,-4.2916,58.676,1.31E+08
37699,6.6711,-7.5512,56.163,1.23E+08
37700,6.2434,-3.9158,55.804,1.61E+08
37701,4.9757,-6.3636,58.199,1.37E+08
37702,4.2777,-3.9556,57.55,1.78E+08
37703,4.641,-6.0562,55.189,1.49E+08
37704,3.7752,11.594,48.78,3.56E+08
37705,1.0086,11.873,48.629,4.00E+08
37706,-0.96707,9.4947,48.024,4.08E+08
37707,3.9768,9.1625,48.204,3.68E+08
37708,2.389,6.8105,47.329,4.04E+08
37709,2.1244,10.592,50.384,3.83E+08
37710,2.6656,8.1837,50.008,3.74E+08
37711,0.40368,7.5272,47.892,4.21E+08
37712,6.08E-02,9.2221,50.044,3.98E+08
37713,0.74719,6.9922,50.278,3.89E+08
37714,-6.8508,-6.5163,61.323,1.23E+08
37715,-6.8122,-2.4364,63.243,1.45E+08
37716,-6.9258,-0.62599,61.986,1.69E+08
37717,-6.8583,-2.546,59.91,2.06E+08
37718,-6.349,-4.8466,59.265,1.87E+08
37719,-5.1593,-5.8868,61.854,1.41E+08
37720,-5.1099,-1.8314,61.034,2.10E+08
37721,-4.5254,-4.1168,60.389,1.89E+08
37722,-5.0632,-3.0513,62.265,1.85E+08
37723,-5.8949,-4.5074,62.767,1.36E+08
37724,-8.0616,14.864,48.365,2.36E+08
37725,-7.2706,14.013,51.315,2.46E+08
37726,-5.808,10.975,48.189,2.94E+08
37727,-7.6385,9.8839,49.781,2.26E+08
37728,-5.9976,13.442,48.829,2.68E+08
37729,-6.9552,11.333,50.999,2.34E+08
37730,-36.17,-6.1279,67.097,2.53E+07
37731,-37.856,-3.9848,67.845,6.00E+07
37732,-37.31,-5.0289,64.918,3.71E+07
37733,34.039,-23.745,11.955,1.59E+08
37734,33.958,-25.963,11.545,1.88E+08
37735,36.11,-24.498,11.069,1.83E+08
37736,34.442,-23.337,9.3196,1.50E+08
37737,36.801,-23.812,8.6593,1.53E+08
37738,34.612,-28.163,7.7054,1.62E+08
37739,31.557,-3.8248,16.804,1.79E+08
37740,33.748,-3.3194,17.505,1.70E+08
37741,35.258,-3.1669,15.476,1.37E+08
37742,33.684,-4.2257,12.275,9.99E+07
37743,33.773,-5.0634,15.514,1.31E+08
37744,35.329,-3.6276,13.205,1.11E+08
37745,32.718,-4.7265,14.069,1.23E+08
37746,-38.446,-6.7791,69.125,3.10E+07
37747,-38.733,-8.8078,70.046,7.07E+07
37748,-40.029,-8.5842,67.562,6.37E+07
37749,-37.901,-7.8232,66.199,4.70E+07
37750,6.1317,-16.504,58.551,4.45E+07
37751,4.056,-15.26,61.531,2.76E+07
37752,2.9622,-15.879,60.722,3.35E+07
37753,4.8673,-14.386,61.665,2.42E+07
37754,5.8537,-13.608,59.309,5.56E+07
37755,4.7432,-15.286,61.86,1.88E+07
37756,3.7259,-14.356,60.136,5.17E+07
37757,4.0428,-15.014,57.656,5.26E+07
37758,2.9885,-16.394,58.834,3.58E+07
37759,6.4255,-15.986,60.403,3.83E+07
37760,7.3359,-14.227,57.712,7.14E+07
37761,6.866,-18.053,55.426,5.97E+07
37762,5.525,-15.633,56.059,6.35E+07
37763,4.4707,-17.014,57.237,4.80E+07
37764,7.9077,-16.605,58.806,6.05E+07
37765,40.059,-22.305,12.48,1.60E+08
37766,45.34,-21.023,11.727,1.01E+08
37767,40.75,-21.618,10.071,1.18E+08
37768,43.552,-21.139,14.004,1.18E+08
37769,43.846,-18.804,12.579,9.50E+07
37770,43.506,-20.677,9.8872,9.56E+07
37771,39.745,-20.172,12.543,1.11E+08
37772,41.432,-19.481,10.661,9.52E+07
37773,41.319,-20.718,13.846,1.28E+08
37774,41.947,-18.706,12.809,9.63E+07
37775,33.269,-18.603,14.835,1.18E+08
37776,31.674,-15.156,17.606,1.13E+08
37777,33.94,-16.45,17.32,1.09E+08
37778,31.997,-17.777,16.6,1.12E+08
37779,33.266,-12.804,13.827,9.64E+07
37780,33.622,-16.005,12.964,1.02E+08
37781,34.004,-13.999,17.561,1.00E+08
37782,32.284,-12.53,16.018,1.08E+08
37783,33.798,-14.05,12.545,9.66E+07
37784,35.026,-17.224,14.012,1.06E+08
37785,34.589,-13.116,15.725,9.63E+07
37786,35.497,-14.829,14.252,9.28E+07
37787,35.211,-15.612,16.029,9.56E+07
37788,31.403,-16.023,15.816,9.46E+07
37789,-58.998,-7.3833,63.623,4.96E+07
37790,-62.045,-6.6619,63.093,4.06E+07
37791,-61.679,-5.6878,61.49,3.50E+07
37792,-62.679,-9.6553,62.682,6.27E+07
37793,-3.2163,-16.147,60.511,3.66E+07
37794,-4.0741,-14.041,62.667,4.46E+07
37795,-3.9807,-15.126,62.625,3.79E+07
37796,-3.3812,-15.439,62.415,4.45E+07
37797,-4.4613,-14.631,60.894,4.28E+07
37798,-2.4015,-14.955,62.103,5.06E+07
37799,-6.6499,-8.88,63.691,6.19E+07
37800,-7.8263,-11.986,61.739,6.09E+07
37801,-6.6474,-7.5759,59.294,1.50E+08
37802,-5.9765,-10.941,62.487,5.32E+07
37803,-5.4577,-8.6161,61.882,9.94E+07
37804,-7.4442,-10.768,59.776,8.78E+07
37805,-4.8424,-8.7143,59.94,1.19E+08
37806,-6.3637,-11.53,60.714,6.34E+07
37807,-7.8007,-10.157,63.276,6.07E+07
37808,-6.1933,-7.2367,62.796,9.24E+07
37809,-6.0583,-9.7849,63.02,6.10E+07
37810,10.795,-23.391,45.042,5.61E+07
37811,10.224,-23.015,46.671,6.08E+07
37812,5.5453,-6.975,63.681,9.59E+07
37813,6.9444,-11.396,63.207,4.29E+07
37814,6.5673,-7.9521,61.996,7.22E+07
37815,5.2304,-11.112,63.113,5.26E+07
37816,6.2169,-10.334,60.757,6.32E+07
37817,2.8037,-8.9726,62.469,1.14E+08
37818,3.2115,-6.4924,62.762,1.54E+08
37819,6.6649,-10.272,64.47,4.45E+07
37820,4.0891,-11.083,61.583,6.86E+07
37821,4.1993,-8.1776,61,1.09E+08
37822,5.4925,-9.1103,65.132,6.61E+07
37823,17.433,-12,31.267,3.12E+08
37824,18.451,-10.159,30.197,3.47E+08
37825,17.783,-8.294,30.823,4.03E+08
37826,14.646,-9.4433,33.946,3.34E+08
37827,5.7457,3.9989,62.685,2.24E+08
37828,6.652,6.7702,62.63,2.20E+08
37829,6.3519,2.4049,61.767,1.84E+08
37830,6.6937,2.9659,58.52,1.86E+08
37831,6.8419,5.6396,58.047,2.04E+08
37832,4.384,6.0459,62.425,2.56E+08
37833,7.5474,4.6164,62.656,1.74E+08
37834,4.9131,3.2885,60.254,2.24E+08
37835,5.7815,7.3581,59.357,2.41E+08
37836,4.7756,4.8817,58.436,2.49E+08
37837,7.5153,6.9044,60.449,1.92E+08
37838,4.0908,5.4282,60.346,2.52E+08
37839,7.067,-5.5345,66.1,8.23E+07
37840,6.4143,-3.7802,66.561,1.05E+08
37841,5.9419,-2.4031,63.678,1.43E+08
37842,6.7367,-5.5886,62.633,9.13E+07
37843,3.381,-4.1289,63.399,1.78E+08
37844,5.934,-3.7421,62.114,1.28E+08
37845,4.3688,-5.8141,61.637,1.27E+08
37846,5.662,-6.7468,65.77,9.29E+07
37847,-50.579,-7.4051,67.981,5.38E+07
37848,-49.619,-6.085,69.496,4.79E+07
37849,-48.549,-7.963,71.798,5.14E+07
37850,-46.945,-6.0306,69.742,4.35E+07
37851,-48.395,-7.9867,66.746,5.24E+07
37852,-45.959,-8.0241,68.02,5.19E+07
37853,-47.848,-6.1211,67.721,4.45E+07
37854,-46.906,-7.955,70.19,5.24E+07
37855,-48.422,-6.0365,70.972,4.48E+07
37856,-54.901,-6.9819,66.176,5.40E+07
37857,-60.314,-6.2346,65.154,4.50E+07
37858,45.682,-2.5752,8.0282,7.76E+07
37859,45.622,-3.0522,10.676,8.27E+07
37860,41.284,-4.8059,8.4281,6.48E+07
37861,42.849,-3.3937,10.947,8.98E+07
37862,45.258,-4.9719,8.271,5.57E+07
37863,40.555,-3.8626,10.095,7.75E+07
37864,44.407,-5.2393,10.811,6.39E+07
37865,42.674,-5.108,9.5235,6.66E+07
37866,41.502,-2.9783,7.6585,7.38E+07
37867,2.3688,-15.253,62.105,3.86E+07
37868,4.2738,-13.76,63.048,3.69E+07
37869,4.1497,-14.66,63.244,3.08E+07
37870,3.1324,-13.731,61.519,5.63E+07
37871,2.7885,-14.194,62.877,5.40E+07
37872,12.985,-24.798,36.521,9.03E+07
37873,14.279,-24.29,33.312,1.37E+08
37874,14.63,-26.944,32.762,1.46E+08
37875,11.999,-22.855,33.461,1.36E+08
37876,12.551,-22.861,35.323,1.20E+08
37877,12.679,-28.963,33.302,1.32E+08
37878,12.845,-21.743,37.981,1.45E+08
37879,11.192,-22.508,41.059,9.64E+07
37880,17.027,-16.195,31.383,2.17E+08
37881,15.675,-20.292,32.467,1.67E+08
37882,17.56,-18.324,30.78,1.96E+08
37883,13.395,-18.856,32.616,1.36E+08
37884,13.947,-18.863,34.477,1.61E+08
37885,-7.2217,-4.37E-02,67.455,1.17E+08
37886,-6.8892,-2.6656,66.79,9.93E+07
37887,-6.6279,0.73267,65.77,1.59E+08
37888,-7.1856,0.72467,63.935,1.55E+08
37889,-5.3697,-0.48069,62.983,1.94E+08
37890,-5.3229,-1.7006,64.214,1.74E+08
37891,-7.1655,1.7929,66.052,1.54E+08
37892,-6.1547,-3.1568,64.716,1.28E+08
37893,-6.4286,-6.3799,67.209,6.75E+07
37894,-7.4203,-7.9434,66.944,4.65E+07
37895,-4.9584,-8.2505,64.221,9.28E+07
37896,-7.3014,-9.7913,65.615,3.90E+07
37897,-5.694,-6.8711,65.134,9.04E+07
37898,-5.559,-9.4192,65.358,6.91E+07
37899,-5.4503,-10.108,66.521,7.02E+07
37900,-6.8619,18.86,49.202,3.07E+08
37901,-7.2443,16.485,51.147,2.86E+08
37902,-5.9713,15.913,48.661,2.92E+08
37903,-9.2981,19.657,47.505,3.41E+08
37904,-40.418,-6.6647,70.794,3.15E+07
37905,-41.982,-4.9974,72.208,4.42E+07
37906,-42.701,-4.4474,70.032,5.23E+07
37907,-41.303,-4.6106,67.352,4.78E+07
37908,-41.714,-6.441,68.31,2.93E+07
37909,-42.661,-6.3719,70.48,3.15E+07
37910,-39.587,-5.6801,66.947,2.65E+07
37911,-40.663,-3.9093,71.806,6.13E+07
37912,-51.576,-5.6878,68.183,5.30E+07
37913,-51.495,-5.9521,64.378,5.02E+07
37914,-50.352,-7.5896,65.434,5.18E+07
37915,-49.806,-5.724,66.409,5.15E+07
37916,-52.076,-7.9105,64.357,5.32E+07
37917,53.879,-20.296,6.3565,9.61E+07
37918,49.474,-19.206,4.7912,7.95E+07
37919,49.619,-21.166,8.3425,8.65E+07
37920,51.96,-20.484,8.1523,8.65E+07
37921,51.967,-18.495,6.5287,8.44E+07
37922,47.785,-20.82,6.503,7.65E+07
37923,49.854,-18.681,7.1293,7.50E+07
37924,53.792,-21.627,5.2527,1.04E+08
37925,51.941,-22.352,4.4367,1.03E+08
37926,33.337,-24.174,14.144,1.72E+08
37927,31.944,-23.565,17.045,1.86E+08
37928,34.089,-19.802,17.039,1.34E+08
37929,32.146,-21.129,16.319,1.35E+08
37930,35.489,-22.709,13.668,1.68E+08
37931,33.772,-19.357,12.683,1.23E+08
37932,33.821,-21.547,11.919,1.35E+08
37933,35.141,-21.977,16.251,1.59E+08
37934,35.175,-20.576,13.731,1.33E+08
37935,32.391,-4.1274,19.554,2.03E+08
37936,29.161,-3.7619,21.152,2.95E+08
37937,28.686,-5.6765,20.849,2.55E+08
37938,31.585,-6.2824,19.736,1.89E+08
37939,30.824,-7.2212,17.887,1.68E+08
37940,32.416,-5.8714,17.564,1.65E+08
37941,31.361,-5.5346,16.118,1.56E+08
37942,19.588,-12.63,29.524,3.16E+08
37943,19.104,-16.6,29.991,2.52E+08
37944,20.365,-14.653,28.985,2.75E+08
37945,-3.5645,7.8385,66.729,2.93E+08
37946,-1.3588,8.4935,66.884,3.35E+08
37947,-4.4506,7.0674,64.725,2.69E+08
37948,-1.193,3.8885,64.774,3.17E+08
37949,-4.3541,4.3345,66.151,2.55E+08
37950,-0.14555,6.6027,65.154,3.16E+08
37951,-2.3474,8.1507,64.357,3.15E+08
37952,-3.8153,5.7348,63.345,2.87E+08
37953,-2.037,5.1316,63.903,3.14E+08
37954,-4.8917,5.3948,66.433,2.49E+08
37955,5.8629,5.7647,64.819,2.38E+08
37956,5.5707,2.1806,67.289,1.95E+08
37957,6.6508,4.4828,67.421,2.09E+08
37958,5.5627,1.3994,63.957,2.05E+08
37959,2.5474,2.3262,64.234,2.76E+08
37960,3.5948,5.0404,64.614,2.77E+08
37961,6.7583,3.6109,64.845,1.92E+08
37962,4.124,2.283,62.443,2.43E+08
37963,3.3017,4.4227,62.535,2.73E+08
37964,-47.943,-4.3133,69.944,5.31E+07
37965,-48.846,-4.4039,67.924,5.31E+07
37966,-49.42,-4.3193,71.175,5.29E+07
37967,49.045,-4.8866,3.6758,2.91E+07
37968,49.344,-8.8341,4.6312,4.06E+07
37969,46.092,-8.2327,1.9266,2.46E+07
37970,47.496,-6.6137,5.5249,2.99E+07
37971,50.398,-5.8271,4.9831,3.22E+07
37972,46.988,-8.4708,4.7946,3.20E+07
37973,31.863,-25.784,16.635,2.21E+08
37974,35.408,-24.927,13.258,2.01E+08
37975,44.187,-20.581,19.048,1.38E+08
37976,43.803,-23.234,20.616,1.56E+08
37977,41.719,-19.883,19.121,1.37E+08
37978,43.05,-21.766,17.725,1.51E+08
37979,39.208,-22.199,18.784,1.83E+08
37980,40.816,-21.344,17.567,1.52E+08
37981,39.551,-22.917,20.55,2.54E+08
37982,29.448,-12.611,20.973,1.59E+08
37983,29.394,-17.996,20.947,1.45E+08
37984,32.494,-16.355,19.809,1.19E+08
37985,28.766,-16.116,21.5,1.46E+08
37986,30.551,-17.682,19.089,1.21E+08
37987,32.557,-13.904,20.05,1.14E+08
37988,30.838,-12.435,18.507,1.25E+08
37989,28.537,-14.062,21.739,1.64E+08
37990,29.957,-15.928,18.305,1.10E+08
37991,31.353,-3.2565,21.853,2.91E+08
37992,37.721,-3.1787,19.628,1.80E+08
37993,36.093,-3.4695,18.226,1.77E+08
37994,33.776,-5.777,20.437,1.91E+08
37995,36.114,-5.6309,19.981,1.63E+08
37996,34.608,-5.366,18.265,1.62E+08
37997,-6.6536,-13.681,62.874,2.30E+07
37998,-8.1214,-13.509,60.163,6.88E+07
37999,-6.5602,-14.766,62.832,1.38E+07
38000,-7.0408,-14.271,61.101,4.16E+07
38001,-8.4778,-12.897,63.663,4.46E+07
38002,21.383,-12.812,27.916,3.06E+08
38003,22.641,-10.594,27.086,3.35E+08
38004,19.938,-8.9234,29.081,4.06E+08
38005,21.961,-8.575,27.348,3.87E+08
38006,6.7562,11.859,50.812,2.61E+08
38007,3.1899,14.036,49.206,3.41E+08
38008,6.8516,15.304,50.795,2.83E+08
38009,6.158,11.325,48.78,3.07E+08
38010,6.6563,13.574,52.721,2.77E+08
38011,5.0091,15.662,49.423,3.17E+08
38012,4.3056,12.755,50.96,3.27E+08
38013,3.9236,15.04,51.116,3.26E+08
38014,20.393,-5.2679,28.966,5.15E+08
38015,22.416,-4.9195,27.234,5.01E+08
38016,-42.268,-7.0261,73.129,4.22E+07
38017,-42.001,-8.4697,69.231,6.06E+07
38018,-42.948,-8.4006,71.401,6.00E+07
38019,-46.155,-6.7412,74.423,4.10E+07
38020,-48.465,-6.5542,75.478,4.17E+07
38021,-49.081,-8.295,76.613,4.77E+07
38022,-47.026,-8.3749,76.174,4.86E+07
38023,-46.834,-8.1157,72.695,5.15E+07
38024,-48.351,-6.1973,73.477,4.06E+07
38025,56.289,-11.243,8.0345,7.24E+07
38026,53.065,-9.8235,7.1245,5.73E+07
38027,54.12,-6.8164,7.4765,4.41E+07
38028,57.594,-8.465,9.1608,5.83E+07
38029,54.575,-8.7517,10.981,4.48E+07
38030,53.148,-7.5949,9.5549,4.02E+07
38031,55.614,-7.2506,9.2649,4.44E+07
38032,54.289,-10.176,9.4358,5.55E+07
38033,56.069,-9.5798,9.6143,5.73E+07
38034,57.316,-9.4852,7.7396,7.06E+07
38035,57.407,-7.33,7.6624,5.90E+07
38036,44.276,-4.514,18.235,1.04E+08
38037,41.468,-4.4846,18.668,1.26E+08
38038,41.415,-9.2055,18.408,6.99E+07
38039,39.84,-4.7754,17.266,1.16E+08
38040,39.861,-6.9367,19.021,1.05E+08
38041,42.205,-4.7672,15.847,9.87E+07
38042,43.928,-7.4613,18.212,6.82E+07
38043,41.12,-7.3196,16.697,8.36E+07
38044,43.763,-6.6128,15.712,7.32E+07
38045,46.438,-21.415,20.044,1.09E+08
38046,49.071,-19.989,18.94,8.85E+07
38047,46.68,-16.556,18.661,7.26E+07
38048,44.354,-18.064,18.549,9.51E+07
38049,48.406,-19.927,16.777,9.21E+07
38050,45.685,-19.947,17.153,1.06E+08
38051,49.486,-18.21,17.556,8.28E+07
38052,45.979,-17.612,15.728,7.97E+07
38053,47.762,-17.736,16.44,8.21E+07
38054,47.962,-20.85,19.67,9.29E+07
38055,49.124,-2.3332,5.9152,5.58E+07
38056,47.939,-2.1407,10.169,8.50E+07
38057,50.309,-1.4559,9.1216,7.39E+07
38058,47.575,-4.0604,7.7643,5.66E+07
38059,50.477,-3.2737,7.2226,5.06E+07
38060,50.066,-0.6908,6.7189,7.39E+07
38061,49.504,-4.0522,9.301,5.36E+07
38062,-64.358,-6.8554,66.323,3.66E+07
38063,-64.993,-4.1333,65.68,3.57E+07
38064,-62.995,-4.5391,63.021,4.75E+07
38065,-63.994,-8.5066,64.213,4.20E+07
38066,17.752,-20.696,31.075,1.95E+08
38067,16.217,-25.318,32.212,1.66E+08
38068,13.587,-21.228,32.911,1.44E+08
38069,14.139,-21.235,34.773,1.59E+08
38070,17.388,-23.612,31.295,1.94E+08
38071,20.899,-16.782,28.383,2.48E+08
38072,20.81,-20.423,28.54,2.51E+08
38073,21.527,-18.647,28.081,2.43E+08
38074,19.273,-21.644,29.608,2.30E+08
38075,6.799,-13.169,63.277,2.85E+07
38076,7.7854,-12.391,60.921,6.36E+07
38077,6.6749,-14.07,63.472,2.19E+07
38078,8.2334,-12.329,64.634,3.38E+07
38079,8.3572,-14.77,62.015,5.14E+07
38080,7.7665,-4.7032,68.343,6.61E+07
38081,8.1865,-8.8317,66.89,3.20E+07
38082,7.0142,-7.6697,67.551,5.44E+07
38083,-7.0389,-1.6236,69.053,8.71E+07
38084,-7.6432,3.5954,69.945,1.23E+08
38085,-6.7776,1.7747,68.033,1.44E+08
38086,-7.3152,2.835,68.315,1.40E+08
38087,-6.4767,2.9217,70.477,1.07E+08
38088,-7.6982,-5.809,68.124,5.05E+07
38089,-5.9719,-4.7367,66.314,9.53E+07
38090,7.557,7.2542,67.365,2.19E+08
38091,6.8146,10.834,62.712,2.63E+08
38092,4.5011,7.8117,64.559,2.68E+08
38093,7.6646,6.3823,64.79,1.95E+08
38094,5.6299,9.9963,66.404,2.67E+08
38095,5.8987,9.1239,61.491,2.55E+08
38096,4.988,10.515,63.949,2.69E+08
38097,6.6093,10.681,64.909,2.63E+08
38098,7.6324,8.6702,62.583,2.15E+08
38099,-65.99,-5.4754,67.379,2.67E+07
38100,-66.145,-8.2377,69.86,3.43E+07
38101,18.036,-28.174,30.584,2.09E+08
38102,17.739,-26.266,30.745,2.03E+08
38103,17.167,-30.157,31.067,1.78E+08
38104,14.617,-29.991,32.201,1.50E+08
38105,63.99,-18.2,5.7432,1.22E+08
38106,65.768,-15.243,6.4582,1.21E+08
38107,30.107,-31.905,18.009,2.29E+08
38108,32.576,-32.614,12.916,1.72E+08
38109,31.004,-34.631,16.536,1.73E+08
38110,23.418,-12.617,26.547,2.86E+08
38111,22.788,-16.7,27.075,2.55E+08
38112,23.75,-14.846,26.678,2.58E+08
38113,-6.26,7.8757,68.839,2.01E+08
38114,-5.4093,9.7311,69.509,2.16E+08
38115,-2.3992,10.214,67.659,2.99E+08
38116,-5.4909,8.788,65.5,2.41E+08
38117,-3.3878,9.8713,65.132,2.82E+08
38118,-6.5901,9.6963,66.476,2.17E+08
38119,-5.932,7.1154,67.208,2.20E+08
38120,-4.3062,11.054,66.911,2.67E+08
38121,-5.0925,11.585,68.762,2.38E+08
38122,7.2649,3.67,69.834,1.74E+08
38123,6.6494,-0.79057,69.253,1.24E+08
38124,6.1769,0.58661,66.37,1.51E+08
38125,7.3725,2.7981,67.259,1.49E+08
38126,-1.7811,26.77,51.37,2.38E+08
38127,0.96361,25.932,51.483,2.40E+08
38128,1.0118,22.265,50.953,2.96E+08
38129,-3.3531,21.997,50.548,3.04E+08
38130,1.5713,23.964,50.634,2.69E+08
38131,-3.0245,24.624,50.995,2.90E+08
38132,-0.7825,25.045,53.315,2.89E+08
38133,-0.95793,20.975,50.686,3.21E+08
38134,1.8013,24.521,52.794,2.79E+08
38135,-0.32046,22.359,52.504,3.06E+08
38136,-2.0227,21.412,52.686,3.13E+08
38137,-2.5072,23.339,52.902,3.11E+08
38138,-46.143,-5.1718,75.598,4.58E+07
38139,-44.703,-6.9924,76.294,3.71E+07
38140,-44.704,-4.3729,76.429,4.61E+07
38141,-44.551,-4.8088,72.366,5.07E+07
38142,-44.511,-6.7333,72.815,4.04E+07
38143,-46.028,-4.8148,73.597,4.97E+07
38144,-42.513,-4.2707,74.141,5.75E+07
38145,59.463,-19.359,6.4662,1.11E+08
38146,57.104,-19.015,10.424,8.99E+07
38147,56.968,-16.447,7.6713,9.49E+07
38148,54.724,-19.345,9.0987,9.11E+07
38149,58.937,-18.286,9.6459,9.33E+07
38150,54.73,-17.357,7.4751,8.99E+07
38151,56.303,-17.435,9.5609,8.80E+07
38152,56.556,-20.489,6.1991,1.08E+08
38153,26.672,-10.28,23.785,2.60E+08
38154,27.92,-8.4409,22.348,2.49E+08
38155,30.819,-9.0468,21.235,1.85E+08
38156,31.777,-11.454,20.929,1.47E+08
38157,30.057,-9.9856,19.386,1.66E+08
38158,27.756,-11.612,22.617,2.03E+08
38159,29.515,-23.053,20.668,2.18E+08
38160,29.415,-28.257,19.98,2.50E+08
38161,28.411,-26.006,21.931,2.92E+08
38162,32.353,-24.358,20.636,2.99E+08
38163,30.672,-22.739,18.81,1.84E+08
38164,33.667,-23.586,18.743,2.24E+08
38165,30.376,-25.557,20.989,3.25E+08
38166,30.732,-23.973,21.288,2.72E+08
38167,27.456,-23.884,23.062,2.59E+08
38168,31.66,-19.29,20.661,1.53E+08
38169,27.933,-19.051,22.352,1.75E+08
38170,29.717,-20.617,19.941,1.55E+08
38171,27.02,-21.292,23.153,2.19E+08
38172,29.777,-21.851,22.42,2.36E+08
38173,27.648,-4.8055,23.147,3.36E+08
38174,25.72,-4.6261,24.846,4.02E+08
38175,-67.169,-3.1166,69.581,2.79E+07
38176,-67.323,-5.8789,72.062,2.72E+07
38177,-67.95,-5.7999,73.878,2.41E+07
38178,-67.488,-3.2,75.015,2.40E+07
38179,7.7532,22.991,51.157,3.44E+08
38180,7.6858,22.255,53.656,3.84E+08
38181,5.2957,20.795,50.883,3.03E+08
38182,7.6484,18.761,51.492,3.06E+08
38183,5.8551,22.495,50.564,2.91E+08
38184,5.8059,19.118,50.12,3.10E+08
38185,5.8571,19.559,53.008,3.23E+08
38186,-8.2046,26.212,50.702,3.99E+08
38187,-7.7826,22.445,52.802,4.05E+08
38188,-7.0113,22.16,50.38,3.64E+08
38189,-7.6853,25.516,52.788,4.06E+08
38190,-6.6827,24.787,50.826,3.56E+08
38191,-6.1654,23.502,52.733,3.58E+08
38192,-9.4475,22.957,48.683,4.15E+08
38193,-4.5468,17.514,70.755,2.13E+08
38194,-3.1734,16.95,72.355,2.11E+08
38195,-0.39923,17.442,72.149,2.33E+08
38196,-4.7237,17.067,68.674,2.52E+08
38197,0.11424,15.056,70.035,2.81E+08
38198,-1.1208,13.161,68.886,3.08E+08
38199,-4.661,15.057,68.048,2.44E+08
38200,1.0135,16.776,70.261,2.50E+08
38201,-2.7325,15.966,67.281,2.77E+08
38202,-0.8606,15.318,67.909,2.86E+08
38203,-1.918,17.703,69.187,2.59E+08
38204,-3.0278,14.001,68.138,2.71E+08
38205,-3.8142,14.532,69.989,2.38E+08
38206,-49.068,-6.7255,77.788,4.13E+07
38207,-47.014,-6.8054,77.349,3.75E+07
38208,-49.381,-4.6415,79.511,4.05E+07
38209,-47.015,-4.1859,77.484,4.65E+07
38210,-48.338,-4.6278,74.652,4.98E+07
38211,-47.629,-8.5462,78.484,4.65E+07
38212,-49.996,-6.3823,80.645,3.73E+07
38213,-49.101,-8.6763,80.441,4.02E+07
38214,-50.339,-8.83,81.188,3.67E+07
38215,20.249,-29.94,28.543,2.61E+08
38216,21.428,-27.923,27.841,2.90E+08
38217,19.207,-26.468,29.667,2.43E+08
38218,18.635,-30.359,29.989,2.15E+08
38219,48.699,-4.73,6.1579,3.71E+07
38220,51.602,-3.9433,5.6162,3.59E+07
38221,51.191,-1.3604,5.1125,5.01E+07
38222,62.106,-15.956,6.9112,1.10E+08
38223,64.061,-16.604,6.3445,1.20E+08
38224,63.532,-16.907,8.6667,1.08E+08
38225,59.788,-16.649,6.8346,1.06E+08
38226,61.757,-18.488,8.8092,1.05E+08
38227,43.667,-2.7649,18.567,1.37E+08
38228,49.009,-2.0893,18.027,1.09E+08
38229,48.282,-4.8391,17.992,7.84E+07
38230,47.177,-2.706,15.475,1.04E+08
38231,44.404,-3.0475,15.746,1.09E+08
38232,46.127,-5.7416,18.111,7.81E+07
38233,45.962,-4.8931,15.61,8.29E+07
38234,39.232,-3.0263,17.599,1.49E+08
38235,39.253,-5.1876,19.353,1.36E+08
38236,41.596,-3.0181,16.179,1.31E+08
38237,45.301,-22.599,18.721,1.20E+08
38238,47.578,-23.503,21.238,1.15E+08
38239,-66.78,-5.5155,69.218,2.65E+07
38240,22.699,-20.341,27.232,2.59E+08
38241,22.667,-24.794,26.933,2.99E+08
38242,20.446,-23.339,28.759,2.52E+08
38243,23.731,-21.885,26.099,2.62E+08
38244,25.924,-8.5594,24.281,3.04E+08
38245,25.76,-11.73,24.55,2.60E+08
38246,23.996,-8.38,25.979,3.72E+08
38247,25.007,-12.628,25.848,2.78E+08
38248,7.7001,7.9652,71.134,2.28E+08
38249,8.4525,5.1003,67.391,1.74E+08
38250,6.4178,8.7143,69.005,2.42E+08
38251,7.2206,17.987,70.137,2.95E+08
38252,7.2196,12.262,70.892,2.74E+08
38253,6.7416,15.687,72.07,2.71E+08
38254,7.1124,13.774,71.732,2.93E+08
38255,7.4711,17.288,68.049,3.35E+08
38256,4.8303,14.613,69.797,2.75E+08
38257,7.3092,15.69,66.311,3.24E+08
38258,5.9373,13.012,68.764,2.84E+08
38259,5.7295,16.333,70.023,2.70E+08
38260,5.5537,15.621,67.854,2.86E+08
38261,6.9166,13.697,67.269,2.88E+08
38262,-67.562,-8.1989,73.515,2.89E+07
38263,22.173,-29.487,26.878,3.03E+08
38264,19.38,-31.923,29.026,2.28E+08
38265,22.71,-31.65,26.344,2.79E+08
38266,20.078,-33.761,28.387,2.26E+08
38267,21.953,-33.826,26.825,2.42E+08
38268,57.754,-17.365,18.793,6.29E+07
38269,57.686,-13.285,18.192,5.08E+07
38270,56.71,-17.123,15.877,6.93E+07
38271,55.572,-18.049,18.784,6.54E+07
38272,53.353,-14.058,18.05,5.00E+07
38273,55.487,-12.574,18.477,4.15E+07
38274,54.002,-16.515,17.423,6.56E+07
38275,55.909,-15.543,15.014,6.73E+07
38276,54.881,-14.148,19.324,4.80E+07
38277,55.959,-13.764,16.514,5.52E+07
38278,58.209,-15.691,17.193,6.44E+07
38279,53.985,-14.779,15.696,5.96E+07
38280,27.356,-29.087,22.374,2.93E+08
38281,27.491,-33.272,21.496,2.35E+08
38282,26.393,-31.567,22.765,2.71E+08
38283,29.257,-34.064,18.95,1.99E+08
38284,17.71,9.6267,-60.569,8.89E+07
38285,18.851,10.307,-61.227,3.25E+07
38286,25.36,-17.868,24.839,2.11E+08
38287,24.448,-20.109,25.641,2.47E+08
38288,24.378,-16.711,26.376,2.43E+08
38289,56.19,-2.80E-02,6.9255,3.84E+07
38290,59.049,-0.70535,7.5033,2.99E+07
38291,60.006,-2.7344,7.6942,3.91E+07
38292,54.874,-1.7188,9.0483,4.39E+07
38293,55.042,-3.5367,7.1493,3.61E+07
38294,54.631,-0.95373,6.6456,4.42E+07
38295,57.918,-2.2834,9.4821,3.07E+07
38296,56.536,-3.9708,8.9378,3.37E+07
38297,58.329,-4.0503,7.3352,4.32E+07
38298,53.643,0.23053,18.484,1.05E+08
38299,53.434,-0.3495,16.121,9.14E+07
38300,53.975,-2.9693,17.902,6.60E+07
38301,50.816,-4.1341,17.886,6.93E+07
38302,49.711,-2.001,15.369,9.48E+07
38303,52.081,-1.3162,14.321,8.46E+07
38304,52.849,-2.7455,15.948,6.95E+07
38305,9.0212,27.13,54.168,4.86E+08
38306,5.4507,26.784,51.82,2.76E+08
38307,7.889,24.576,54.063,4.07E+08
38308,6.0583,24.816,50.971,3.08E+08
38309,7.6101,27.329,52.48,3.45E+08
38310,6.2884,25.373,53.132,3.36E+08
38311,7.3816,24.02,64.171,4.26E+08
38312,7.3183,21.026,64.427,4.03E+08
38313,7.3142,20.183,60.253,4.03E+08
38314,7.4499,22.942,59.4,4.35E+08
38315,7.1564,19.428,62.689,3.92E+08
38316,8.2077,24.313,61.847,5.43E+08
38317,5.1821,22.273,64.561,3.50E+08
38318,5.6819,23.748,60.616,3.91E+08
38319,5.3078,24.177,63.131,3.86E+08
38320,5.5717,20.868,62.831,3.75E+08
38321,4.1798,22.104,61.785,3.52E+08
38322,5.5904,21.185,60.665,3.84E+08
38323,-7.0644,8.0477,70.843,1.56E+08
38324,-8.2452,8.0129,67.81,1.69E+08
38325,-7.5871,5.432,68.543,1.58E+08
38326,-6.7486,5.5187,70.705,1.23E+08
38327,-9.0043,30.594,52.099,4.05E+08
38328,-5.3098,29.209,51.351,2.79E+08
38329,-7.5559,27.792,52.937,3.87E+08
38330,-6.5532,27.064,50.975,3.37E+08
38331,-7.5655,19.631,73.701,1.97E+08
38332,-7.1579,21.724,73.059,1.90E+08
38333,-5.672,19.012,73.151,1.65E+08
38334,-7.047,16.611,72.404,1.92E+08
38335,-7.2223,19.129,69.47,2.55E+08
38336,-7.1923,21.627,69.734,2.59E+08
38337,-4.9767,21.302,72.33,1.64E+08
38338,-4.4166,19.765,69.984,2.06E+08
38339,-6.3128,16.594,70.786,2.03E+08
38340,-7.1655,18.134,73.428,1.90E+08
38341,-45.575,-6.0065,78.18,2.86E+07
38342,-47.047,-8.7562,80.003,4.07E+07
38343,-47.942,-3.8426,80.342,4.01E+07
38344,-49.414,-6.5923,82.164,3.12E+07
38345,-52.468,-6.1672,82.956,2.79E+07
38346,-52.922,-4.3636,83.878,2.86E+07
38347,-50.652,-6.746,82.911,2.90E+07
38348,-67.727,-5.52,76.468,2.05E+07
38349,-67.629,-8.2225,77.279,2.31E+07
38350,23.975,-40.77,24.847,1.36E+08
38351,22.61,-38.684,26.412,1.69E+08
38352,20.565,-40.303,27.66,1.62E+08
38353,24.852,-27.154,25.25,3.34E+08
38354,25.916,-24.245,24.416,2.93E+08
38355,28.317,-26.388,23.383,3.67E+08
38356,28.673,-24.803,23.683,3.13E+08
38357,56.851,3.3875,6.0706,5.29E+07
38358,55.288,1.4094,10.398,7.08E+07
38359,56.69,2.6609,9.0019,6.38E+07
38360,58.11,1.4561,7.0538,3.81E+07
38361,53.935,0.44268,8.5988,6.40E+07
38362,53.692,1.2078,6.1961,6.41E+07
38363,56.979,-0.12187,9.0326,4.03E+07
38364,54.934,2.9201,5.5841,6.02E+07
38365,-67.166,-5.6227,78.416,1.72E+07
38366,-66.258,-3.3671,80.262,2.23E+07
38367,-4.9868,29.184,62.72,4.15E+08
38368,-6.6132,28.77,59.515,5.36E+08
38369,-5.9141,27.466,61.442,4.31E+08
38370,-1.4596,29.524,59.839,3.63E+08
38371,-5.6144,28.275,57.512,4.11E+08
38372,-7.0444,28.837,61.436,5.83E+08
38373,-3.1795,28.97,61.518,3.86E+08
38374,-2.3698,27.967,57.87,3.53E+08
38375,-2.9419,30.006,57.868,3.50E+08
38376,-4.8582,30.799,58.1,4.05E+08
38377,-4.1723,27.086,59.795,3.98E+08
38378,-2.2319,27.687,60.189,3.61E+08
38379,7.3711,23.703,68.447,3.66E+08
38380,6.5784,19.107,72.723,2.68E+08
38381,6.984,21.063,73.442,2.68E+08
38382,7.6073,24.644,70.485,3.13E+08
38383,4.1535,20.419,72.565,2.30E+08
38384,7.3078,20.708,68.702,3.41E+08
38385,6.8139,23.557,72.534,2.58E+08
38386,5.1717,21.956,68.836,2.81E+08
38387,5.5662,19.754,70.676,2.71E+08
38388,4.6938,22.097,71.231,2.40E+08
38389,5.114,24.27,70.659,2.46E+08
38390,-49.757,-9.04,82.707,3.05E+07
38391,21.13,-26.015,28.002,2.82E+08
38392,23.889,-29.633,25.641,3.08E+08
38393,24.416,-24.562,25.342,2.92E+08
38394,58.609,-19.115,16.461,7.37E+07
38395,57.471,-20.041,19.367,6.97E+07
38396,60.108,-17.683,17.776,6.89E+07
38397,61.458,-18.313,19.791,6.54E+07
38398,63.884,-12.999,7.6262,1.08E+08
38399,63.12,-10.466,8.074,9.36E+07
38400,63.355,-13.301,9.9484,9.57E+07
38401,59.611,-13.044,8.1163,9.38E+07
38402,61.58,-14.883,10.091,9.20E+07
38403,60.916,-10.266,9.2425,7.85E+07
38404,63.241,-10.778,10.458,8.32E+07
38405,61.239,-12.291,10.565,8.37E+07
38406,60.638,-11.286,7.8214,9.16E+07
38407,6.9481,11.47,73.141,2.72E+08
38408,5.773,10.707,70.173,2.67E+08
38409,-6.6312,11.775,72.385,1.73E+08
38410,-7.3946,9.8683,68.48,1.73E+08
38411,-5.897,11.757,70.767,1.92E+08
38412,-0.96425,33.424,54.199,1.63E+08
38413,1.4455,34.814,54.207,1.18E+08
38414,-0.50332,31.135,53.587,1.92E+08
38415,2.2414,30.298,53.699,2.10E+08
38416,1.4055,30.967,57.5,2.74E+08
38417,2.3249,32.42,53.25,1.59E+08
38418,0.49528,29.41,55.532,2.42E+08
38419,-7.69E-02,31.449,55.53,2.34E+08
38420,3.0538,30.806,56.061,2.70E+08
38421,3.4474,32.47,55.091,2.31E+08
38422,7.9212,26.939,68.142,3.84E+08
38423,6.7185,27.349,63.517,4.69E+08
38424,7.6217,23.004,66.359,4.07E+08
38425,8.511,26.29,63.779,5.51E+08
38426,6.298,28.182,66.395,4.09E+08
38427,5.4855,24.251,66.493,3.44E+08
38428,8.5203,28.209,66.936,4.71E+08
38429,5.6112,26.155,65.063,3.80E+08
38430,5.4278,26.566,68.316,3.11E+08
38431,9.1345,26.804,66.207,5.14E+08
38432,-66.16,-6.0697,81.073,1.32E+07
38433,-65.866,-8.4899,81.456,1.91E+07
38434,61.592,-12.779,18.232,5.41E+07
38435,63.313,-12.114,18.22,5.47E+07
38436,62.115,-15.185,17.233,6.80E+07
38437,64.082,-13.361,17.094,6.73E+07
38438,66.188,-13.362,19.068,6.75E+07
38439,64.548,-14.883,19.293,6.54E+07
38440,64.287,-14.857,16.379,7.48E+07
38441,63.465,-15.815,19.248,6.48E+07
38442,57.747,0.82257,18.331,7.94E+07
38443,57.539,0.24254,15.968,6.55E+07
38444,58.079,-2.3772,17.749,4.05E+07
38445,59.618,2.2438,16.861,6.79E+07
38446,58.94,1.4941,14.572,5.85E+07
38447,61.025,-2.889,17.557,2.43E+07
38448,61.907,-0.12143,17.788,3.79E+07
38449,59.229,-1.2887,14.602,3.47E+07
38450,61.583,0.49503,15.202,3.53E+07
38451,61.507,-1.488,16.285,2.72E+07
38452,59.366,-1.938,16.576,3.48E+07
38453,59.514,-1.9485,18.903,4.04E+07
38454,55.534,1.2653,16.684,9.57E+07
38455,56.075,-1.3545,18.464,6.88E+07
38456,57.613,3.2665,17.577,9.92E+07
38457,58.29,3.9149,8.5965,5.71E+07
38458,59.71,2.7102,6.6484,2.97E+07
38459,60.173,5.4393,6.9928,4.49E+07
38460,59.165,5.976,6.2576,5.20E+07
38461,58.407,5.2426,5.4403,4.91E+07
38462,7.919,28.824,58.851,5.55E+08
38463,8.9537,26.395,56.667,5.23E+08
38464,9.7115,27.766,59.114,6.37E+08
38465,9.1775,29.983,57.443,6.03E+08
38466,8.6748,29.147,55.084,4.66E+08
38467,7.3531,27.191,55.735,4.45E+08
38468,7.3279,29.111,56.786,4.68E+08
38469,7.1857,27.201,57.883,4.67E+08
38470,10.099,30.462,55.798,5.42E+08
38471,-6.6998,33.605,53.211,2.97E+08
38472,-9.3609,35.2,53.01,3.37E+08
38473,-6.2389,31.316,52.599,3.05E+08
38474,-9.98,32.165,54.628,5.14E+08
38475,-8.4849,29.898,54.185,4.12E+08
38476,-7.7287,32.422,54.773,4.03E+08
38477,-5.4235,30.681,67.82,2.87E+08
38478,-7.5854,29.021,66.702,4.37E+08
38479,-3.266,29.426,66.346,3.11E+08
38480,-6.7085,27.195,64.162,4.16E+08
38481,-6.5602,26.296,66.678,3.57E+08
38482,-7.8388,28.567,64.155,5.71E+08
38483,-3.9739,28.699,64.238,3.71E+08
38484,-5.9702,28.279,68.119,3.06E+08
38485,-3.5813,27.2,66.849,3.04E+08
38486,-4.0679,26.295,64.688,3.43E+08
38487,-8.1016,27.855,65.432,4.85E+08
38488,6.5051,18.763,75.375,2.49E+08
38489,6.4702,14.894,74.319,2.72E+08
38490,3.6746,18.119,74.498,2.09E+08
38491,5.166,18.666,76.16,2.09E+08
38492,5.0873,17.454,72.609,2.45E+08
38493,-55.082,-6.2326,84.466,2.53E+07
38494,-56.569,-8.093,84.725,2.38E+07
38495,-54.67,-8.6563,84.648,2.52E+07
38496,-52.811,-8.6149,83.499,2.59E+07
38497,26.133,-37.762,22.755,1.75E+08
38498,24.278,-38.233,24.505,1.75E+08
38499,26.919,-40.699,21.279,1.25E+08
38500,64.217,7.4269,10.52,4.46E+07
38501,63.581,9.1275,10.125,5.49E+07
38502,64.169,5.0588,10.518,3.15E+07
38503,62.929,8.1375,13.635,6.92E+07
38504,60.664,5.7802,14.136,7.67E+07
38505,59.986,5.0305,11.846,6.62E+07
38506,61.869,6.5549,10.243,5.43E+07
38507,63.123,5.9564,15.152,6.17E+07
38508,64.618,6.1762,12.82,4.42E+07
38509,62.63,4.0315,12.477,4.06E+07
38510,-64.958,-6.2343,83.303,1.11E+07
38511,-63.092,-3.6678,83.798,2.11E+07
38512,-9.5303,29.858,57.47,6.23E+08
38513,-8.335,26.782,60.957,5.46E+08
38514,-8.2367,25.476,58.889,5.45E+08
38515,-8.0353,27.592,57.026,5.26E+08
38516,-9.4653,28.154,60.95,6.98E+08
38517,-7.2791,30.116,57.614,5.12E+08
38518,-6.5932,26.403,59.309,4.87E+08
38519,-1.0566,35.898,53.083,1.04E+08
38520,-6.1274,36.105,52.874,2.08E+08
38521,-3.7335,36.645,53.156,1.49E+08
38522,-3.0054,32.22,52.463,1.81E+08
38523,-0.17718,33.504,52.126,1.05E+08
38524,-2.5789,32.533,54.405,2.09E+08
38525,-4.4952,33.327,54.637,2.75E+08
38526,66.886,-12.227,8.3701,1.11E+08
38527,65.075,-11.114,7.5073,1.04E+08
38528,65.31,-13.949,9.3817,1.06E+08
38529,67.565,-12.782,6.8439,1.23E+08
38530,69.631,-6.6649,18.007,5.49E+07
38531,67.877,-9.8564,16.121,7.02E+07
38532,67.331,-5.818,17.987,3.80E+07
38533,64.954,-7.0342,17.672,3.73E+07
38534,68,-6.9877,16.306,5.53E+07
38535,66.081,-8.8478,15.285,6.18E+07
38536,65.284,-9.1782,17.998,4.93E+07
38537,66.053,-10.426,16.872,6.19E+07
38538,68.159,-10.426,18.846,6.30E+07
38539,69.398,-9.3893,19.027,6.53E+07
38540,8.0889,30.716,52.118,3.04E+08
38541,6.013,32.293,51.008,1.86E+08
38542,7.6696,33.718,51.682,2.25E+08
38543,9.513,32.03,52.832,3.76E+08
38544,9.7419,34.02,51.474,2.72E+08
38545,7.1356,32.343,52.849,2.63E+08
38546,-6.0475,20.099,76.696,1.23E+08
38547,-5.2423,21.187,78.471,8.69E+07
38548,-5.64,22.192,76.054,1.11E+08
38549,-4.1541,19.48,76.146,1.21E+08
38550,-3.8098,21.05,78.75,7.62E+07
38551,-3.4588,21.77,75.325,1.10E+08
38552,-3.4994,22.63,77.585,7.14E+07
38553,-2.3555,20.7,77.301,1.08E+08
38554,0.14631,39.693,53.799,4.99E+07
38555,-1.3237,38.035,53.164,8.66E+07
38556,3.7395,38.133,52.988,7.69E+07
38557,2.2326,34.894,52.134,7.19E+07
38558,1.993,39.485,53.368,5.11E+07
38559,3.8891,36.319,52.808,9.86E+07
38560,3.3551,34.944,53.975,1.42E+08
38561,-57.022,-6.2894,85.647,2.12E+07
38562,-58.234,-3.9753,85.032,2.20E+07
38563,-55.124,-6.8526,85.569,2.20E+07
38564,-56.554,-3.9313,86.173,2.48E+07
38565,70.568,-5.7904,8.051,9.87E+07
38566,69.459,-2.9396,8.4516,7.29E+07
38567,67.985,-8.3122,8.9996,9.37E+07
38568,66.174,-7.1994,8.1368,8.67E+07
38569,65.46,-4.5483,8.166,6.75E+07
38570,66.818,-3.2511,8.0024,6.47E+07
38571,69.581,-4.3688,10.087,7.58E+07
38572,68.909,-6.6346,9.9564,8.60E+07
38573,66.294,-7.5112,10.521,7.63E+07
38574,65.662,-5.4902,10.113,6.44E+07
38575,67.369,-4.0241,10.206,6.20E+07
38576,69.465,-7.1851,7.6759,1.02E+08
38577,-7.2803,20.773,77.625,1.48E+08
38578,-7.6779,21.778,75.209,1.80E+08
38579,-6.1921,19.066,75.301,1.47E+08
38580,-7.6855,18.189,75.578,1.82E+08
38581,-7.2278,30.789,69.081,3.16E+08
38582,-7.0664,34.635,71.373,1.53E+08
38583,-2.9083,31.193,68.726,2.09E+08
38584,-4.2614,34.138,71.782,1.23E+08
38585,-7.7175,32.09,70.827,2.17E+08
38586,-2.9357,32.917,70.691,1.45E+08
38587,-5.6125,30.047,70.499,1.93E+08
38588,-2.9498,30.181,71.73,1.51E+08
38589,-4.1128,31.89,72.31,1.41E+08
38590,-5.746,32.961,72.412,1.44E+08
38591,-8.3644,26.404,67.94,3.83E+08
38592,-9.6431,28.675,65.417,5.99E+08
38593,-9.8794,30.43,69.709,3.66E+08
38594,-7.7744,28.387,69.381,3.35E+08
38595,-9.9058,27.963,66.694,5.21E+08
38596,8.4724,31.356,72.27,2.64E+08
38597,9.4607,32.482,73.791,2.25E+08
38598,6.096,31.288,72.388,2.04E+08
38599,8.2242,28.945,71.853,2.87E+08
38600,7.4307,27.859,73.902,2.27E+08
38601,7.5782,31.374,75.218,1.93E+08
38602,5.7308,28.572,72.027,2.13E+08
38603,5.5626,29.979,74.447,1.74E+08
38604,8.3386,29.032,74.767,2.35E+08
38605,9.3698,29.805,72.003,2.98E+08
38606,6.1641,21.355,77.724,2.18E+08
38607,4.0802,20.075,75.217,2.00E+08
38608,7.3637,22.201,77.599,2.48E+08
38609,6.7406,23.213,75.187,2.29E+08
38610,5.5716,20.621,76.879,2.06E+08
38611,4.6205,21.753,73.883,2.03E+08
38612,5.2289,22.805,76.428,1.88E+08
38613,-61.587,-8.4022,84.796,1.71E+07
38614,-59.721,-5.8357,85.291,1.57E+07
38615,-56.61,-8.7131,85.828,2.22E+07
38616,-58.041,-5.7917,86.433,1.84E+07
38617,-62.799,-6.088,84.181,1.13E+07
38618,-9.8809,39.428,52.703,2.33E+08
38619,-6.3946,38.241,52.955,1.91E+08
38620,-7.3478,40.153,53.085,1.73E+08
38621,63.612,10.297,19.502,9.91E+07
38622,62.991,8.8751,17.272,8.89E+07
38623,60.726,6.5177,17.773,9.58E+07
38624,63.185,6.6939,18.789,8.08E+07
38625,63.625,8.1302,19.361,8.89E+07
38626,67.374,11.132,8.5165,3.22E+07
38627,65.955,9.6817,8.4797,3.43E+07
38628,66.542,5.613,8.8721,1.91E+07
38629,68.77,6.9388,8.9725,1.88E+07
38630,65.302,8.6917,11.989,4.82E+07
38631,69.102,9.3932,9.0632,2.16E+07
38632,64.243,7.1091,8.5974,3.47E+07
38633,66.992,6.7304,11.174,2.60E+07
38634,67.584,9.1148,10.599,3.08E+07
38635,4.081,21.994,79.385,1.57E+08
38636,6.6171,22.837,79.228,2.19E+08
38637,4.8251,21.258,78.508,1.79E+08
38638,4.4824,23.441,78.057,1.58E+08
38639,5.1776,22.713,80.071,1.79E+08
38640,72.287,-2.2036,18.16,4.36E+07
38641,75.5,-0.44249,18.797,4.89E+07
38642,70.628,1.6276,18.067,1.99E+07
38643,72.887,2.4719,18.505,2.34E+07
38644,69.986,-1.3567,18.14,2.80E+07
38645,73.601,0.71503,15.299,4.55E+07
38646,75.083,1.7327,17.86,3.83E+07
38647,72.228,2.0132,15.764,3.03E+07
38648,71.076,0.12961,16.21,3.28E+07
38649,74.048,2.2885,16.407,3.54E+07
38650,74.699,6.76E-02,16.809,4.92E+07
38651,73.333,-1.0859,16.867,4.84E+07
38652,74.252,-1.9046,18.799,5.09E+07
38653,6.976,35.314,72.146,1.97E+08
38654,9.6422,33.828,72.535,2.50E+08
38655,6.2775,32.634,71.132,2.39E+08
38656,8.4057,30.291,70.598,3.11E+08
38657,6.7825,31.534,68.851,3.42E+08
38658,7.7597,32.72,73.962,2.12E+08
38659,9.0048,31.561,69.392,4.07E+08
38660,9.5513,31.151,70.748,3.24E+08
38661,8.0356,37.862,53.817,1.99E+08
38662,8.1852,36.048,53.636,2.29E+08
38663,10.029,34.36,54.786,3.80E+08
38664,9.7541,38.79,54.169,2.26E+08
38665,10.258,36.35,53.428,2.66E+08
38666,-0.28207,43.895,55.277,5.47E+07
38667,-2.9139,43.658,55.578,6.80E+07
38668,-2.5306,40.44,53.872,9.23E+07
38669,0.78617,41.89,54.075,5.80E+07
38670,-3.4838,42.352,54.002,9.18E+07
38671,3.1815,44.811,55.385,5.57E+07
38672,7.7964,44.54,55.082,8.55E+07
38673,5.2323,45.531,56.275,5.83E+07
38674,5.9962,41.455,53.804,8.78E+07
38675,4.2497,42.806,54.183,6.60E+07
38676,7.7147,42.383,54.156,1.16E+08
38677,-2.1354,45.455,56.349,5.67E+07
38678,2.5472,46.411,56.937,4.35E+07
38679,-1.5415,46.783,58.101,4.05E+07
38680,0.50626,47.057,58.811,3.21E+07
38681,1.5646,43.687,54.846,5.11E+07
38682,5.1686,26.012,81.974,1.52E+08
38683,2.9129,23.864,80.342,1.14E+08
38684,1.5158,24.436,80.239,8.90E+07
38685,5.449,24.707,80.185,1.76E+08
38686,3.2244,27.5,82.45,1.01E+08
38687,0.81013,27.125,81.651,6.62E+07
38688,4.4886,27.117,80.028,1.29E+08
38689,3.3142,25.311,79.014,1.18E+08
38690,2.3376,27.269,80.085,9.16E+07
38691,4.0094,24.583,81.028,1.36E+08
38692,72.451,-5.2854,15.704,7.31E+07
38693,69.353,-3.9923,18.148,3.85E+07
38694,70.023,-5.162,16.467,5.54E+07
38695,70.443,-2.506,16.218,4.32E+07
38696,72.629,-6.0082,19.319,6.38E+07
38697,72.7,-3.7215,16.874,6.00E+07
38698,73.619,-4.5402,18.807,6.27E+07
38699,71.42,-7.5636,19.188,6.53E+07
38700,-7.041,26.865,82.446,1.04E+08
38701,-7.2908,28.281,79.922,1.19E+08
38702,-6.9351,23.748,79.861,1.15E+08
38703,-7.3327,24.753,77.445,1.44E+08
38704,-5.3883,24.706,80.564,7.26E+07
38705,-6.8941,27.008,77.94,1.24E+08
38706,-4.428,27.077,81.179,6.65E+07
38707,-5.1922,25.191,78.976,8.27E+07
38708,-5.5084,27.902,79.45,9.20E+07
38709,-10.25,43.931,54.576,1.37E+08
38710,-8.4402,41.881,53.116,1.67E+08
38711,-8.5877,37.042,74.577,1.11E+08
38712,-9.0742,40.035,75.363,7.57E+07
38713,-7.4776,38.176,79.251,7.88E+07
38714,-7.7893,35.894,78.692,9.45E+07
38715,-6.6983,38.922,74.517,6.55E+07
38716,-5.7826,36.546,74.986,7.98E+07
38717,-6.7471,38.839,76.764,7.35E+07
38718,-5.9183,36.928,77.331,7.66E+07
38719,-7.2672,35.368,75.616,1.03E+08
38720,7.3993,38.625,72.478,1.51E+08
38721,6.0794,37.401,76.502,9.81E+07
38722,2.6054,38.985,73.162,7.27E+07
38723,7.3175,39.106,74.119,1.17E+08
38724,7.9642,36.44,73.667,1.54E+08
38725,4.5995,35.246,72.264,1.40E+08
38726,5.9175,40.283,72.829,9.91E+07
38727,4.4404,38.996,75.522,8.70E+07
38728,6.0818,35.332,75.094,1.18E+08
38729,3.1983,36.997,73.406,9.34E+07
38730,3.9514,36.639,75.218,9.18E+07
38731,4.0331,40.244,73.928,8.04E+07
38732,74.849,-3.7136,8.0088,1.08E+08
38733,74.559,-4.2547,10.161,1.02E+08
38734,71.991,-2.9126,8.1841,8.71E+07
38735,73.174,-5.7475,10.512,1.02E+08
38736,72.112,-4.3419,9.8196,9.00E+07
38737,71.44,-6.6077,9.6888,1.00E+08
38738,71.997,-7.1582,7.4083,1.17E+08
38739,74.807,-4.9175,7.141,1.20E+08
38740,67.72,14.375,18.792,8.22E+07
38741,67.165,9.9502,18.828,6.72E+07
38742,64.634,10.825,17.334,8.38E+07
38743,66.596,12.359,17.922,7.88E+07
38744,65.268,10.08,19.424,8.37E+07
38745,-9.5535,39.814,73.333,1.04E+08
38746,-7.1776,38.701,72.487,9.05E+07
38747,-6.2619,36.325,72.956,9.96E+07
38748,-9.7181,34.276,72,1.94E+08
38749,-7.7466,35.147,73.585,1.21E+08
38750,7.3579,28.623,82.164,1.78E+08
38751,7.3238,27.345,84.647,1.80E+08
38752,7.5364,24.987,80.893,2.22E+08
38753,5.3118,27.78,83.158,1.46E+08
38754,6.576,27.398,80.737,1.73E+08
38755,6.0968,24.864,81.736,1.83E+08
38756,77.663,0.85817,18.505,5.43E+07
38757,79.427,0.7363,19.63,5.99E+07
38758,77.278,-0.80689,17.454,6.60E+07
38759,75.913,-1.9604,17.512,6.54E+07
38760,76.832,-2.7791,19.445,6.80E+07
38761,69.944,15.974,8.2461,3.74E+07
38762,66.738,12.833,8.1219,4.27E+07
38763,68.459,14.855,10.51,4.89E+07
38764,69.885,12.544,8.7054,2.63E+07
38765,70.17,13.818,10.738,3.62E+07
38766,68.368,12.266,10.241,3.82E+07
38767,9.4188,39.804,73.319,1.55E+08
38768,10.065,37.138,72.867,1.76E+08
38769,8.0187,40.981,72.029,1.49E+08
38770,10.04,40.723,72.471,1.72E+08
38771,-7.1467,45.963,56.534,8.39E+07
38772,-4.1734,46.546,58.403,5.37E+07
38773,-5.3372,43.912,55.075,8.76E+07
38774,7.1621,46.14,56.634,6.64E+07
38775,9.5402,46.376,57.999,6.41E+07
38776,9.6446,42.991,54.516,1.23E+08
38777,6.9761,47.367,59.191,4.55E+07
38778,2.557,47.777,59.701,3.43E+07
38779,5.1505,47.74,59.639,4.01E+07
38780,76.241,1.2976,8.798,8.08E+07
38781,76.309,-2.2049,10.387,9.73E+07
38782,73.741,-0.86282,8.4094,8.27E+07
38783,77.887,0.10863,10.744,8.93E+07
38784,78.444,-7.23E-02,7.8066,1.04E+08
38785,75.441,-0.3329,10.34,8.07E+07
38786,73.862,-2.2921,10.045,8.54E+07
38787,76.557,-2.8677,7.3663,1.15E+08
38788,-6.5528,47.291,58.286,6.06E+07
38789,-9.4779,47.717,59.25,6.15E+07
38790,-7.7167,44.657,54.958,9.86E+07
38791,-9.6903,45.893,67.749,6.36E+07
38792,-8.5287,45.499,72.098,6.30E+07
38793,-6.8972,45.286,69.515,6.43E+07
38794,-9.5301,45.8,70.577,7.65E+07
38795,-9.5041,43.128,71.891,7.59E+07
38796,-7.1282,42.015,71.045,6.17E+07
38797,-5.9988,43.897,71.384,5.16E+07
38798,-7.4668,29.752,86.966,7.79E+07
38799,-6.9367,29.511,82.046,9.68E+07
38800,-4.1447,28.639,85.531,4.21E+07
38801,-5.9103,30.1,84.141,7.39E+07
38802,-4.0739,28.307,83.303,4.83E+07
38803,-5.1543,29.132,81.574,7.23E+07
38804,78.453,6.7661,17.529,3.05E+07
38805,72.281,7.6157,17.763,2.57E+07
38806,76.863,9.5718,17.458,2.01E+07
38807,74.17,6.0448,18.148,2.00E+07
38808,74.335,9.4883,17.821,2.33E+07
38809,76.603,8.4321,18.568,2.03E+07
38810,76.367,5.3057,17.502,2.89E+07
38811,74.785,7.7418,15.107,2.16E+07
38812,76.148,9.501,15.329,2.08E+07
38813,73.382,7.5619,16.356,2.01E+07
38814,77.386,7.6512,16.083,2.73E+07
38815,75.332,5.8614,16.049,2.68E+07
38816,5.4167,30.952,89.162,9.79E+07
38817,5.4943,31.115,87.255,1.09E+08
38818,1.0239,31.196,89.159,5.33E+07
38819,0.75973,30.024,86.889,5.19E+07
38820,5.2567,29.631,86.948,1.21E+08
38821,3.5279,32.132,88.546,7.82E+07
38822,1.0877,32.276,86.711,5.75E+07
38823,3.2447,30.067,85.459,8.83E+07
38824,4.681,32.509,85.585,9.36E+07
38825,2.8005,33.835,86.764,6.89E+07
38826,3.1033,31.822,84.068,8.10E+07
38827,2.8302,45.918,73.655,4.94E+07
38828,3.9474,45.764,70.425,5.93E+07
38829,1.2082,45.981,70.244,4.26E+07
38830,0.86118,42.454,72.278,3.96E+07
38831,0.80942,46.083,73.605,4.33E+07
38832,4.1732,43.752,71.945,7.50E+07
38833,-0.60994,44.605,72.307,3.54E+07
38834,2.2888,43.713,73.043,4.96E+07
38835,71.8,18.195,18.287,6.71E+07
38836,72.064,17.664,15.537,5.57E+07
38837,72.715,15.483,17.875,5.17E+07
38838,69.473,15.965,15.44,6.40E+07
38839,71.685,13.951,18.113,5.22E+07
38840,71.184,14.928,15.668,5.07E+07
38841,69.062,14.487,17.15,6.71E+07
38842,9.7786,45.763,71.871,1.05E+08
38843,9.7486,47.099,67.638,7.10E+07
38844,10.209,47.187,70.66,9.50E+07
38845,8.1208,46.114,69.74,9.27E+07
38846,8.3467,44.102,71.26,1.07E+08
38847,10.368,43.845,71.702,1.23E+08
38848,10.261,47.262,69.353,8.79E+07
38849,-6.5046,48.3,61.118,4.50E+07
38850,-1.5317,48.149,60.864,3.35E+07
38851,-4.4202,47.926,62.392,3.63E+07
38852,9.3474,48.118,62.846,4.58E+07
38853,7.5286,47.977,61.003,4.48E+07
38854,-9.9211,48.532,63.958,4.49E+07
38855,-7.6194,47.73,67.601,4.35E+07
38856,-10.252,48.244,68.664,5.27E+07
38857,-7.8367,48.157,65.232,4.18E+07
38858,-11.062,49.453,64.758,4.27E+07
38859,8.2632,44.749,75.985,6.90E+07
38860,7.2151,45.787,79.303,4.57E+07
38861,5.4882,45.255,77.085,5.08E+07
38862,8.2313,41.913,76.663,8.91E+07
38863,6.8313,43.089,75.374,7.47E+07
38864,6.9687,43.958,81.289,4.79E+07
38865,5.3542,41.803,78.067,6.17E+07
38866,6.2542,41.806,80.729,5.74E+07
38867,5.2694,44.299,79.607,4.93E+07
38868,4.9469,43.051,76.473,5.61E+07
38869,7.8205,41.987,79.492,6.78E+07
38870,-7.3453,48.352,63.355,4.11E+07
38871,-10.57,49.648,62.881,4.59E+07
38872,1.989,48.335,63.434,2.81E+07
38873,-2.3724,48.2,63.102,3.09E+07
38874,3.1096,48.386,61.512,3.16E+07
38875,-6.4578,47.335,71.951,4.38E+07
38876,-9.0906,47.85,73.013,5.47E+07
38877,-7.6694,47.977,77.451,2.82E+07
38878,-6.1091,47.649,74.896,3.94E+07
38879,-9.0646,45.178,74.327,6.01E+07
38880,-7.2208,45.802,76.846,3.38E+07
38881,-5.5593,45.947,73.82,3.67E+07
38882,-8.7823,48.319,76.254,3.15E+07
38883,-9.1696,48.8,74.305,4.22E+07
38884,73.345,18.989,8.4907,3.16E+07
38885,72.836,18.245,10.695,3.79E+07
38886,73.998,16.181,8.4035,2.06E+07
38887,70.246,16.546,10.597,4.58E+07
38888,71.672,14.235,8.7929,2.38E+07
38889,74.502,16.692,10.691,2.57E+07
38890,71.957,15.509,10.826,3.34E+07
38891,74.826,18.48,9.6156,2.70E+07
38892,6.4013,48.439,65.216,3.98E+07
38893,4.7735,47.454,67.318,4.60E+07
38894,2.0343,47.672,67.138,3.59E+07
38895,4.5824,48.298,63.373,3.43E+07
38896,-7.4592,47.637,70.43,5.49E+07
38897,-4.4777,47.436,72.313,3.87E+07
38898,-5.0436,47.55,66.998,3.92E+07
38899,-2.1097,47.11,69.174,3.91E+07
38900,-3.9278,45.734,71.237,3.51E+07
38901,-5.0802,48.305,80.012,2.58E+07
38902,-3.5199,47.976,77.458,3.37E+07
38903,-0.78879,48.274,79.437,3.41E+07
38904,-1.5508,47.752,77.679,3.60E+07
38905,-1.4405,48.111,81.638,2.98E+07
38906,-4.6316,46.129,79.407,3.35E+07
38907,-3.5282,47.419,82.074,2.94E+07
38908,-1.578,45.938,78.642,3.66E+07
38909,-2.0179,46.069,81.132,3.46E+07
38910,-10.066,45.479,72.806,6.91E+07
38911,-7.5412,32.422,91.428,5.54E+07
38912,-4.6605,31.468,90.198,3.19E+07
38913,-7.3919,33.789,88.257,6.56E+07
38914,-4.9246,30.296,87.928,3.56E+07
38915,-7.7044,34.459,90.077,6.08E+07
38916,-5.0988,33.76,90.672,4.02E+07
38917,-6.6903,31.757,86.537,6.76E+07
38918,-4.5967,32.548,87.75,4.28E+07
38919,-9.3011,30.306,91.883,5.88E+07
38920,7.5387,31.568,93.965,9.77E+07
38921,5.2782,32.188,92.812,8.46E+07
38922,7.7891,31.202,89.134,1.28E+08
38923,7.5515,29.718,88.826,1.41E+08
38924,7.0392,33.468,91.079,1.01E+08
38925,5.8227,32.219,90.425,9.54E+07
38926,75.078,21.754,18.437,5.95E+07
38927,73.679,19.356,15.805,5.24E+07
38928,74.331,17.175,18.143,4.86E+07
38929,75.384,19.087,18.406,5.06E+07
38930,74.864,20.706,16.384,5.24E+07
38931,83.199,7.999,17.561,4.53E+07
38932,83.218,7.1499,15.523,5.54E+07
38933,82.22,5.2627,15.581,6.14E+07
38934,80.297,3.9176,15.437,6.12E+07
38935,81.277,8.3032,18.159,3.47E+07
38936,79.57,7.6202,18.661,2.89E+07
38937,79.334,4.4938,17.595,4.55E+07
38938,80.353,6.8393,16.176,4.31E+07
38939,81.097,4.3719,18.72,5.07E+07
38940,83.154,6.1941,18.982,4.93E+07
38941,5.7569,47.91,83.137,2.84E+07
38942,5.4881,47.949,88.977,3.43E+07
38943,1.4549,47.982,86.962,2.98E+07
38944,5.9283,46.725,87.542,3.83E+07
38945,2.1195,47.902,84.827,3.00E+07
38946,3.1158,48.72,88.156,3.13E+07
38947,5.5105,46.08,85.123,3.81E+07
38948,3.8112,46.421,83.441,3.55E+07
38949,5.6987,49.019,87.397,2.87E+07
38950,3.3087,46.347,87.725,3.57E+07
38951,3.2968,45.862,85.356,3.71E+07
38952,6.1205,48.347,85.625,2.84E+07
38953,8.3527,46.996,76.921,5.88E+07
38954,9.831,47.383,72.392,8.34E+07
38955,6.6258,46.464,74.703,6.99E+07
38956,7.7429,46.31,71.472,7.86E+07
38957,9.3688,43.122,74.281,9.92E+07
38958,7.9688,44.298,72.992,9.98E+07
38959,9.99,44.041,73.434,1.19E+08
38960,9.7705,47.946,73.88,7.77E+07
38961,5.5777,47.502,78.02,4.04E+07
38962,4.3189,48.19,79.728,3.43E+07
38963,7.0582,46.205,82.225,3.41E+07
38964,5.3589,46.546,80.543,3.60E+07
38965,7.6682,48.472,82.727,2.66E+07
38966,83.587,8.0776,9.2869,7.17E+07
38967,81.387,9.3167,9.2433,5.72E+07
38968,83.442,7.289,11.383,6.91E+07
38969,78.876,5.2457,9.3526,6.67E+07
38970,82.444,5.4018,11.441,7.53E+07
38971,80.521,4.0567,11.298,7.50E+07
38972,79.478,7.6903,9.0407,5.73E+07
38973,81.078,3.8757,8.3612,8.94E+07
38974,81.789,8.0397,10.609,6.09E+07
38975,80.577,6.9784,12.037,5.63E+07
38976,83.235,5.7794,8.052,8.72E+07
38977,-8.0009,32.748,100.1,2.24E+07
38978,-7.4583,32.538,95.412,3.13E+07
38979,-5.1742,33.026,96.822,1.13E+07
38980,-7.3219,33.55,97.716,2.38E+07
38981,-9.2182,30.422,95.868,4.00E+07
38982,7.7129,47.647,67.239,5.14E+07
38983,7.5218,48.491,63.293,3.96E+07
38984,9.8532,48.795,66.851,4.83E+07
38985,7.4042,33.171,100.03,6.42E+07
38986,5.1056,32.717,95.736,6.41E+07
38987,6.8665,33.997,94.003,7.86E+07
38988,7.0346,33.727,97.358,7.36E+07
38989,87.037,11.644,17.678,4.27E+07
38990,83.458,12.584,17.759,2.73E+07
38991,84.997,9.1947,15.461,5.30E+07
38992,83.056,10.348,18.098,3.26E+07
38993,86.998,11.293,15.317,5.02E+07
38994,85.494,12.538,18.228,3.33E+07
38995,84.842,11.9,15.247,4.08E+07
38996,82.132,8.8841,16.115,4.08E+07
38997,83.198,11.173,15.923,3.58E+07
38998,86.766,9.7484,19.022,4.62E+07
38999,84.933,8.2389,18.921,4.69E+07
39000,-6.987,46.175,82.337,2.82E+07
39001,-7.403,48.386,83.106,1.96E+07
39002,-5.6894,48.078,77.814,2.82E+07
39003,-6.801,46.231,79.763,2.96E+07
39004,-5.6976,47.521,82.43,2.39E+07
39005,-8.3625,48.748,79.172,1.68E+07
39006,-6.91,47.39,89.129,3.00E+07
39007,-6.7508,44.392,86.474,3.83E+07
39008,-6.8331,42.879,88.093,4.31E+07
39009,-7.1668,46.603,87.243,3.05E+07
39010,-6.5123,45.528,90.641,3.33E+07
39011,-4.5402,44.157,87.696,3.55E+07
39012,-5.4614,45.738,86.567,3.29E+07
39013,-5.3587,43.137,89.792,3.49E+07
39014,-7.0928,43.34,90.722,3.80E+07
39015,-4.9913,45.311,89.201,3.29E+07
39016,8.1733,47.735,70.261,7.05E+07
39017,10.314,48.883,69.873,6.61E+07
39018,78.908,25.553,18.093,4.90E+07
39019,78.795,22.737,18.192,4.32E+07
39020,77.799,24.608,16.353,4.78E+07
39021,77.046,20.953,18.288,4.64E+07
39022,76.526,22.573,16.266,4.81E+07
39023,87.298,11.263,8.5901,6.99E+07
39024,83.106,11.162,9.1869,5.41E+07
39025,85.161,9.1343,11.327,6.59E+07
39026,85.018,12.946,8.6927,5.48E+07
39027,87.162,11.233,11.182,6.31E+07
39028,83.508,9.885,10.552,5.77E+07
39029,85.006,11.839,11.113,5.31E+07
39030,86.499,9.1671,7.8907,8.05E+07
39031,84.954,7.6247,7.9955,8.40E+07
39032,6.5464,46.41,94.377,4.85E+07
39033,4.7128,48.608,93.051,3.88E+07
39034,7.2072,46.889,90.483,4.53E+07
39035,4.3947,48.884,91.098,3.49E+07
39036,7.0285,49.883,93.583,3.77E+07
39037,4.6965,45.64,92.626,4.25E+07
39038,6.9776,49.184,90.338,3.35E+07
39039,4.5876,46.512,90.667,3.97E+07
39040,6.9899,45.52,92.187,5.28E+07
39041,7.4822,48.401,93.701,4.41E+07
39042,77.486,25.202,7.7531,2.85E+07
39043,78.089,24.589,11.347,3.36E+07
39044,76.141,21.946,8.4779,2.80E+07
39045,78.783,21.265,7.9837,1.77E+07
39046,79.68,24.884,8.9397,2.33E+07
39047,76.816,22.553,11.261,3.40E+07
39048,78.757,22.97,11.082,2.69E+07
39049,79.966,22.8,8.7445,1.89E+07
39050,77.621,21.438,9.6029,2.37E+07
39051,-7.6504,49.934,91.651,2.67E+07
39052,-4.1711,49.06,88.752,2.58E+07
39053,-7.2995,49.153,87.73,2.41E+07
39054,-4.9422,49.716,91.046,2.83E+07
39055,-6.6449,48.078,91.128,2.77E+07
39056,-5.1239,47.86,89.688,2.76E+07
39057,-7.2631,47.319,95.239,2.77E+07
39058,-6.9923,47.272,98.617,2.87E+07
39059,-6.2273,47.454,96.496,2.96E+07
39060,-6.2333,42.017,98.771,2.35E+07
39061,-5.8404,41.808,95.818,2.89E+07
39062,-6.842,44.123,98.738,2.64E+07
39063,-6.2576,45.463,94.716,2.93E+07
39064,-4.6925,46.729,98.233,2.93E+07
39065,-4.1804,44.323,95.267,2.78E+07
39066,-3.8904,46.664,96.318,2.95E+07
39067,-4.017,42.578,96.849,2.41E+07
39068,-4.0026,43.92,98.577,2.39E+07
39069,-6.8381,43.275,94.796,3.33E+07
39070,82.552,29.209,18.778,4.30E+07
39071,83.609,26.961,18.241,3.44E+07
39072,80.963,24.669,17.967,3.74E+07
39073,79.966,26.541,16.127,4.17E+07
39074,81.539,28.379,15.574,3.82E+07
39075,83.433,28.668,16.681,3.45E+07
39076,82.402,26.353,16.428,3.28E+07
39077,82.08,26.15,18.727,3.81E+07
39078,87.5,18.464,18.436,2.14E+07
39079,85.601,23.244,18.536,2.33E+07
39080,83.499,17.588,18.238,2.05E+07
39081,82.955,20.952,18.262,2.48E+07
39082,87.371,20.803,17.928,2.03E+07
39083,85.535,17.542,18.707,2.06E+07
39084,84.394,22.636,16.723,2.17E+07
39085,85.762,18.525,16.915,2.14E+07
39086,82.929,18.785,16.696,2.06E+07
39087,85.361,20.711,16.454,2.03E+07
39088,84.072,22.433,19.022,2.52E+07
39089,79.237,28.149,7.3167,2.70E+07
39090,79.845,26.505,8.3848,2.43E+07
39091,-8.0546,33.604,105.23,1.49E+07
39092,-7.8852,35.933,104.37,1.53E+07
39093,-7.0596,36.589,101.81,1.62E+07
39094,-5.2269,33.848,102.28,6.54E+06
39095,-5.4629,34.183,104.98,8.34E+06
39096,-7.2417,34.657,100.49,1.93E+07
39097,-5.6756,35.815,103.24,7.44E+06
39098,7.922,34.145,105.79,3.96E+07
39099,7.9822,36.525,104.9,5.18E+07
39100,6.8079,36.74,101.76,5.41E+07
39101,4.9705,34.258,101.7,4.26E+07
39102,5.637,34.766,105.59,3.66E+07
39103,7.0727,34.801,100.5,6.03E+07
39104,4.2946,34.698,103.78,3.59E+07
39105,5.7955,36.452,103.8,4.40E+07
39106,92.092,17.407,19.397,3.15E+07
39107,89.518,15.061,18.135,3.64E+07
39108,89.811,19.217,17.906,2.57E+07
39109,87.975,15.955,18.684,2.78E+07
39110,88.202,16.939,16.892,2.93E+07
39111,90.542,16.845,16.394,3.71E+07
39112,91.254,16.027,19.403,3.40E+07
39113,7.2823,50.615,100.55,4.64E+07
39114,3.8509,50.485,99.008,4.48E+07
39115,6.4137,47.444,97.605,4.90E+07
39116,4.5801,49.643,96.279,4.14E+07
39117,6.9839,48.494,99.828,4.89E+07
39118,4.1347,48.133,98.164,4.17E+07
39119,6.8957,50.918,96.812,4.07E+07
39120,7.3494,49.436,96.93,4.49E+07
39121,5.2789,49.574,99.964,4.48E+07
39122,8.6805,46.065,106.21,5.03E+07
39123,5.931,45.472,106.43,4.73E+07
39124,6.6345,42.334,107.05,4.94E+07
39125,8.2891,41.151,105.72,5.58E+07
39126,7.1147,41.366,102.58,5.82E+07
39127,7.7611,45.151,103.05,5.61E+07
39128,7.9812,43.434,102.77,6.08E+07
39129,8.8852,43.36,106.62,5.48E+07
39130,5.2296,43.23,105.15,4.57E+07
39131,6.1023,41.078,104.62,4.81E+07
39132,5.8387,43.371,103.16,4.99E+07
39133,7.0679,45.578,104.48,5.20E+07
39134,85.085,28.684,19.151,3.45E+07
39135,85.484,32.429,18.457,3.63E+07
39136,84.91,30.392,17.591,3.46E+07
39137,85.564,30.568,19.183,3.61E+07
39138,-7.2224,50.063,94.943,2.94E+07
39139,-5.55,49.71,93.081,2.88E+07
39140,-7.2527,48.072,93.163,2.90E+07
39141,-9.1595,46.365,105.79,2.27E+07
39142,-9.3546,42.014,109.3,1.58E+07
39143,-7.6779,45.536,107.41,2.19E+07
39144,-8.8551,40.911,106.15,1.68E+07
39145,-8.0295,41.566,103.59,1.87E+07
39146,-8.6383,43.673,103.55,2.22E+07
39147,-9.6589,45.697,107.83,2.47E+07
39148,-8.5787,40.699,107.9,1.46E+07
39149,-7.3721,43.169,107.46,1.50E+07
39150,-7.2445,44.981,105.26,2.05E+07
39151,-6.6998,43.025,105.38,1.58E+07
39152,-10.426,46.123,106.53,2.39E+07
39153,-9.5099,45.245,104.61,2.44E+07
39154,88.156,27.815,18.362,2.49E+07
39155,87.912,23.996,18.006,1.99E+07
39156,85.967,28.144,17.054,2.72E+07
39157,84.935,25.829,16.801,2.61E+07
39158,87.309,26.648,16.343,2.22E+07
39159,87.957,25.555,19.156,2.31E+07
39160,85.902,23.904,16.532,2.12E+07
39161,86.621,28.32,18.646,2.88E+07
39162,84.613,25.626,19.1,3.06E+07
39163,81.413,29.375,10.357,2.85E+07
39164,81.432,27.831,8.5033,2.14E+07
39165,82.9,29.494,9.1806,2.15E+07
39166,82.851,29.933,7.2841,1.87E+07
39167,-8.6138,33.331,109.83,1.12E+07
39168,-6.4585,34.424,109.26,8.69E+06
39169,-8.019,35.681,106.73,1.18E+07
39170,-5.5967,33.931,107.33,7.57E+06
39171,-7.7426,35.469,108.48,1.03E+07
39172,-8.0875,49.377,102.8,2.76E+07
39173,-5.2247,50.587,102.26,3.48E+07
39174,-6.9516,50.016,98.321,3.12E+07
39175,-8.1992,51.217,102.14,3.06E+07
39176,-7.5663,46.685,100.56,2.72E+07
39177,-5.4168,49.29,100.06,3.13E+07
39178,-6.1725,47.993,102.27,2.72E+07
39179,-8.4379,48.257,101.62,2.86E+07
39180,94.387,17.993,8.3823,6.13E+07
39181,93.993,17.252,11.341,5.69E+07
39182,91.141,14.373,8.5147,6.73E+07
39183,91.005,14.342,11.107,6.05E+07
39184,92.335,18.344,10.335,5.09E+07
39185,90.161,16.6,10.139,5.06E+07
39186,92.069,16.477,11.727,5.34E+07
39187,92.741,15.062,7.9605,6.93E+07
39188,91.348,17.095,8.2055,5.62E+07
39189,5.5882,51.155,103.46,4.63E+07
39190,3.4597,49.355,106.13,4.29E+07
39191,0.19026,51.302,104.14,4.42E+07
39192,2.1568,51.025,101.93,4.70E+07
39193,5.7924,52.057,104.94,4.28E+07
39194,1.155,50.29,105.94,4.12E+07
39195,1.8093,49.122,103.77,4.14E+07
39196,2.0912,51.926,106,4.42E+07
39197,4.4938,50.897,105.56,4.32E+07
39198,4.5966,49.461,104.18,4.56E+07
39199,3.5848,50.114,102.88,4.55E+07
39200,0.77822,39.121,112.34,1.21E+07
39201,-7.59E-02,38.237,110.41,1.45E+07
39202,2.6343,40.923,109.53,3.13E+07
39203,-2.414,41.601,109.12,1.55E+07
39204,1.2295,41.818,107.62,2.84E+07
39205,2.232,38.555,110.78,1.90E+07
39206,-1.2145,39.61,108.59,1.57E+07
39207,-1.7417,41.456,107.05,1.80E+07
39208,0.92213,39.242,108.91,2.18E+07
39209,-0.62189,42.954,108.85,2.33E+07
39210,0.15281,40.134,106.97,2.31E+07
39211,-2.0124,40.165,110.59,1.21E+07
39212,8.6593,33.807,109.95,2.19E+07
39213,8.9377,35.889,110.25,3.06E+07
39214,8.4619,36.424,107.52,4.11E+07
39215,6.1166,34.665,108.21,2.57E+07
39216,6.4049,35.24,110.11,2.27E+07
39217,88.072,36.181,17.401,2.88E+07
39218,88.555,31.56,17.667,2.47E+07
39219,86.049,33.765,15.206,2.91E+07
39220,89.787,33.921,17.577,2.52E+07
39221,88.914,35.185,15.381,2.33E+07
39222,86.365,31.888,16.359,2.82E+07
39223,89.578,32.475,15.532,2.15E+07
39224,87.716,33.377,14.319,2.33E+07
39225,87.02,32.065,17.951,2.98E+07
39226,88.045,32.956,18.473,2.96E+07
39227,89.378,24.492,7.526,3.10E+07
39228,87.095,23.454,7.8485,2.75E+07
39229,84.88,26.236,8.6357,1.75E+07
39230,88.673,28.128,8.2551,2.21E+07
39231,86.349,27.899,9.3129,1.73E+07
39232,89.962,26.221,8.8407,2.55E+07
39233,88.098,26.572,10.886,2.04E+07
39234,86.299,28.338,7.4165,1.72E+07
39235,87.3,24.883,9.4005,2.29E+07
39236,93.408,21.272,7.5186,4.92E+07
39237,93.271,23.316,7.9526,4.07E+07
39238,88.752,21.661,7.6746,3.61E+07
39239,91.357,21.623,9.4709,3.98E+07
39240,91.618,24.428,8.6669,3.37E+07
39241,88.956,23.09,9.2266,3.00E+07
39242,90.369,20.374,7.3418,4.47E+07
39243,-7.8891,34.988,113.7,8.06E+06
39244,-6.8839,34.403,111.51,7.04E+06
39245,-8.168,35.449,110.73,9.18E+06
39246,-9.3861,33.558,113.72,8.44E+06
39247,8.684,49.84,105.16,4.56E+07
39248,7.7647,48.925,102,5.13E+07
39249,8.2672,51.948,104.19,4.41E+07
39250,6.9687,50.788,104.82,4.46E+07
39251,7.0715,49.352,103.43,4.82E+07
39252,6.0597,50.006,102.13,4.63E+07
39253,8.9645,52.359,103.14,4.13E+07
39254,-6.6093,50.512,107.11,2.77E+07
39255,-9.1351,50.879,106.4,2.52E+07
39256,-6.9769,48.091,106.78,2.56E+07
39257,-5.5956,50.13,104.62,3.18E+07
39258,-8.5701,50.76,104.5,2.78E+07
39259,-8.9578,48.252,107.19,2.76E+07
39260,-6.5434,47.536,104.62,2.43E+07
39261,-9.7252,48.678,105.89,2.59E+07
39262,-8.8088,47.8,103.98,2.63E+07
39263,95.81,19.798,18.279,3.53E+07
39264,94.619,18.149,16.992,4.13E+07
39265,91.963,19.746,18.89,2.57E+07
39266,92.695,17.374,17.378,3.81E+07
39267,93.82,19.314,18.154,3.29E+07
39268,93.406,16.556,20.387,3.52E+07
39269,94.29,19.491,20.631,2.78E+07
39270,95.461,18.062,20.927,3.23E+07
39271,3.6377,36.701,115.47,6.86E+06
39272,1.6761,37.129,117.75,4.33E+06
39273,0.64655,36.684,112.99,7.74E+06
39274,-0.55146,36.92,115.22,5.90E+06
39275,2.9545,37.002,113.36,1.15E+07
39276,9.575,50.653,108.86,3.49E+07
39277,9.7709,51.118,107.39,3.55E+07
39278,6.5555,48.04,107.83,4.09E+07
39279,9.5097,45.927,108.01,4.76E+07
39280,8.8882,50.741,106.64,4.03E+07
39281,7.5896,49.581,107.26,4.12E+07
39282,7.6925,48.145,105.87,4.53E+07
39283,-2.2035,52.78,110.36,3.04E+07
39284,-7.286,52.47,108.35,2.80E+07
39285,-4.7755,53.396,111.5,2.47E+07
39286,-6.8911,53.211,110.38,2.53E+07
39287,-5.1278,49.683,108.73,3.04E+07
39288,-3.7465,51.722,106.57,3.77E+07
39289,-6.721,52.352,106.45,3.16E+07
39290,-7.1088,49.844,109.15,3.08E+07
39291,-2.7818,50.71,108.37,3.36E+07
39292,-1.8456,52.347,108.43,3.67E+07
39293,7.3459,34.702,113.75,9.15E+06
39294,9.1954,35.653,111.79,2.47E+07
39295,9.3905,33.795,113.44,1.11E+07
39296,6.6626,35.004,111.65,1.63E+07
39297,88.423,35.423,8.4623,1.59E+07
39298,85.768,33.473,10.787,2.23E+07
39299,88,31.657,8.599,1.74E+07
39300,85.676,31.427,9.6568,1.90E+07
39301,85.627,31.867,7.7603,1.68E+07
39302,87.435,33.086,9.9004,1.82E+07
39303,2.6529,53.063,110.72,3.03E+07
39304,7.3987,52.672,109.95,2.88E+07
39305,4.3793,50.059,108.92,3.60E+07
39306,4.2849,53.851,111.81,2.53E+07
39307,6.712,52.76,107.73,3.63E+07
39308,3.0108,52.63,108.79,3.69E+07
39309,5.4134,51.6,108.35,3.64E+07
39310,91.227,40.036,16.865,1.97E+07
39311,90.755,39.822,14.841,1.89E+07
39312,91.618,38.065,17.986,2.19E+07
39313,90.92,36.176,17.754,2.37E+07
39314,90.047,37.44,15.558,2.20E+07
39315,97.926,21.504,8.4258,5.47E+07
39316,95.644,21.889,8.1191,5.00E+07
39317,95.388,19.103,10.644,5.49E+07
39318,93.73,20.196,9.6373,4.90E+07
39319,96.408,20.548,9.9473,5.31E+07
39320,94.136,16.913,7.2632,6.72E+07
39321,92.742,18.947,7.5083,5.43E+07
39322,99.012,22.551,17.179,3.60E+07
39323,99.484,23.605,14.789,3.78E+07
39324,96.381,23.017,17.232,3.04E+07
39325,96.185,20.012,14.889,4.43E+07
39326,97.883,24.713,16.817,2.97E+07
39327,97.111,23.795,13.978,3.51E+07
39328,95.092,23.373,15.485,3.00E+07
39329,95.386,21.177,16.051,3.57E+07
39330,97.205,21.456,14.193,4.26E+07
39331,95.855,21.354,18.529,3.04E+07
39332,-7.7938,38.442,113.75,8.87E+06
39333,-8.0727,38.903,110.78,1.08E+07
39334,-6.8661,41.373,110.33,9.80E+06
39335,-6.4645,39.937,111.8,6.11E+06
39336,-2.2188,54.072,112.8,2.27E+07
39337,-0.28372,54.737,113.82,2.06E+07
39338,1.9852,54.244,112.75,2.38E+07
39339,-0.22508,51.386,109.67,3.15E+07
39340,0.71113,53.023,109.73,3.46E+07
39341,7.6242,36.784,114.05,1.96E+07
39342,3.8131,36.262,118.29,4.36E+06
39343,6.1859,36.287,118.43,4.06E+06
39344,8.1151,35.566,116.75,5.97E+06
39345,7.8194,34.926,115.7,7.39E+06
39346,5.0915,36.135,113.91,1.10E+07
39347,10.041,53.139,108.65,2.71E+07
39348,9.8715,53.111,112.52,1.72E+07
39349,9.1582,52.762,107.89,3.30E+07
39350,7.8596,51.602,108.52,3.33E+07
39351,9.9646,36.516,114.79,1.87E+07
39352,7.3434,39.453,110.69,3.73E+07
39353,8.998,38.27,109.36,4.37E+07
39354,9.5941,40.478,110.25,4.32E+07
39355,9.6689,35.876,113.74,2.12E+07
39356,6.941,37.086,111.94,2.67E+07
39357,94.951,26.99,17.918,2.27E+07
39358,92.343,29.401,17.828,2.24E+07
39359,93.576,31.762,17.738,2.30E+07
39360,96.453,28.687,17.502,2.27E+07
39361,96.248,31.482,17.139,2.56E+07
39362,93.366,30.317,15.693,2.25E+07
39363,93.662,27.346,16.17,2.30E+07
39364,94.7,31.564,15.001,2.44E+07
39365,94.999,29.212,15.765,2.34E+07
39366,93.741,28.324,18.486,2.33E+07
39367,102,25.67,18.081,2.93E+07
39368,101.12,24.494,15.791,3.56E+07
39369,98.017,23.906,18.235,2.80E+07
39370,99.519,25.603,17.819,2.73E+07
39371,-8.6487,35.977,116.69,6.00E+06
39372,-6.8766,36.854,118.39,5.10E+06
39373,-5.7338,36.081,113.12,5.80E+06
39374,-7.018,37.127,112.34,7.86E+06
39375,-4.6714,36.469,115.42,6.33E+06
39376,-4.7885,36.877,117.97,5.64E+06
39377,-5.4098,38.161,113.37,3.58E+06
39378,-8.236,35.236,115.34,7.12E+06
39379,4.2243,36.716,120.71,4.30E+06
39380,2.7089,38.348,122.89,2.87E+06
39381,0.41795,37.202,122.3,3.33E+06
39382,-0.37604,36.481,118.05,4.83E+06
39383,-0.49319,36.889,120.59,4.22E+06
39384,-9.4169,53.577,109.67,2.14E+07
39385,-9.2468,52.718,105.74,2.74E+07
39386,-9.6345,50.21,108.43,2.80E+07
39387,-10.402,50.636,107.13,2.63E+07
39388,91.387,39.356,10.32,1.26E+07
39389,91.366,35.474,8.883,1.84E+07
39390,92.484,37.602,8.9322,1.81E+07
39391,90.679,36.973,11.037,1.66E+07
39392,89.482,35.166,9.9751,1.68E+07
39393,101.58,25.061,8.869,4.71E+07
39394,100.83,24.356,11.284,4.38E+07
39395,97.788,23.548,8.8599,4.54E+07
39396,99.518,25.156,9.0562,4.36E+07
39397,98.458,24.546,10.473,4.07E+07
39398,98.552,22.207,10.688,4.85E+07
39399,9.3541,53.226,106.42,3.39E+07
39400,8.0292,54.764,115.81,1.40E+07
39401,9.944,54.799,116.22,1.25E+07
39402,-6.9064,54.503,112.82,1.77E+07
39403,-2.8557,55.353,114.95,1.50E+07
39404,-5.2039,55.612,115.76,1.24E+07
39405,-7.0993,55.681,114.7,1.21E+07
39406,-10.067,54.52,113.21,1.43E+07
39407,-9.2149,55.496,113.59,1.25E+07
39408,-8.7862,36.165,119.77,3.69E+06
39409,-10.751,35.632,119.54,3.54E+06
39410,-10.146,34.547,116.71,5.89E+06
39411,-11.404,34.129,117.39,4.14E+06
39412,8.5262,36.019,119.17,3.58E+06
39413,5.0816,38.373,123.03,2.69E+06
39414,7.4713,38.051,122.83,2.75E+06
39415,-2.6297,55.462,118.69,7.95E+06
39416,1.3483,55.525,114.91,1.61E+07
39417,0.62015,55.787,117.88,9.60E+06
39418,-3.2688,56.277,116.79,1.02E+07
39419,8.0752,56.014,117.1,9.93E+06
39420,5.9374,55.107,119.7,6.69E+06
39421,4.8889,55.506,115.26,1.51E+07
39422,4.1607,55.768,118.24,9.13E+06
39423,10.16,34.658,116.44,6.93E+06
39424,94.169,43.343,17.244,1.07E+07
39425,96.011,41.44,17.051,1.41E+07
39426,92.777,41.423,14.128,1.17E+07
39427,93.641,39.665,17.273,1.59E+07
39428,95.646,43.029,15.589,9.42E+06
39429,92.069,39.04,14.845,1.52E+07
39430,94.663,40.026,15.274,1.57E+07
39431,93.974,43.066,14.642,9.59E+06
39432,104.37,28.559,9.7676,3.61E+07
39433,101.7,29.489,8.9106,3.38E+07
39434,102.34,26.254,10.986,4.07E+07
39435,101.03,27.054,8.7586,4.05E+07
39436,101.38,28.485,10.731,3.32E+07
39437,104.99,29.176,18.273,2.26E+07
39438,103.21,30.852,17.846,2.13E+07
39439,105.8,29.356,16.254,2.53E+07
39440,102.47,26.724,15.691,3.11E+07
39441,100.87,27.832,17.719,2.35E+07
39442,103.46,29.864,16.099,2.26E+07
39443,101.51,28.955,15.435,2.48E+07
39444,101.8,29.481,18.237,2.21E+07
39445,-8.4412,37.599,123.3,1.93E+06
39446,-8.9791,36.509,121.25,2.60E+06
39447,-5.8869,37.972,123.33,2.14E+06
39448,-4.9261,37.064,121.05,3.45E+06
39449,7.8521,55.142,120.11,5.61E+06
39450,9.8959,55.067,120.78,4.86E+06
39451,1.3298,40.457,125.84,1.64E+06
39452,5.9559,39.683,125,2.04E+06
39453,4.8138,42.253,126.18,1.29E+06
39454,2.0813,43.114,126.52,9.11E+05
39455,1.2753,38.859,124.62,1.95E+06
39456,-6.9971,55.405,120,5.18E+06
39457,-9.7222,56.027,120.4,4.63E+06
39458,-7.6362,56.22,118.1,6.30E+06
39459,-10.384,55.313,116.66,8.81E+06
39460,-9.5316,56.29,117.04,5.89E+06
39461,-2.8682,42.398,126.74,1.26E+06
39462,-0.15509,43.566,127.15,8.86E+05
39463,-0.96108,39.311,125.25,1.59E+06
39464,-2.8331,39.906,125.83,1.38E+06
39465,96.627,42.325,10.546,1.78E+07
39466,95.345,45.586,10.155,7.41E+06
39467,93.522,42.281,10.791,9.10E+06
39468,94.619,40.528,9.4035,1.58E+07
39469,94.719,43.924,11.306,7.69E+06
39470,96.633,44.156,10.088,1.25E+07
39471,96.931,43.145,18.142,1.17E+07
39472,97.388,46.562,18.175,9.93E+06
39473,95.794,48.207,18.029,8.80E+06
39474,95.513,46.663,16.398,9.18E+06
39475,96.565,44.735,16.681,7.38E+06
39476,94.894,44.771,15.734,7.99E+06
39477,98.894,39.223,10.308,3.14E+07
39478,99.791,34.585,9.1267,3.23E+07
39479,96.886,37.426,9.1655,2.98E+07
39480,101.54,36.733,9.6463,3.01E+07
39481,97.675,37.782,11.7,3.00E+07
39482,97.079,35.335,10.729,3.10E+07
39483,100.13,36.81,11.199,3.57E+07
39484,97.496,35.581,8.4957,3.33E+07
39485,7.2035,41.932,125.97,1.27E+06
39486,9.2064,41.839,126.57,1.07E+06
39487,-6.493,53.779,123.17,3.63E+06
39488,-1.935,54.314,122.52,4.25E+06
39489,-4.0443,53.631,123.38,3.54E+06
39490,-7.0638,55.528,121.79,4.29E+06
39491,-1.0889,55.231,120.59,5.99E+06
39492,-4.9779,55.721,119.5,5.78E+06
39493,107.59,30.745,9.9631,2.96E+07
39494,107.31,32.783,10.265,2.78E+07
39495,105.4,31.796,9.9579,2.43E+07
39496,106.16,32.902,12.347,2.25E+07
39497,106.94,30.485,12.746,2.70E+07
39498,102.98,31.089,10.107,2.68E+07
39499,103.62,27.853,12.183,3.28E+07
39500,104.61,30.993,12.591,2.37E+07
39501,102.66,30.084,11.927,2.59E+07
39502,-9.8183,40.097,126.04,9.45E+05
39503,-10.406,37.067,123.06,1.65E+06
39504,-7.3139,38.53,125.15,1.30E+06
39505,7.7582,54.16,123.38,3.80E+06
39506,3.0916,53.978,123.17,4.04E+06
39507,5.3159,52.302,124.49,2.77E+06
39508,3.9377,54.895,121.25,5.47E+06
39509,98.643,41.269,14.781,2.51E+07
39510,99.556,39.133,18.171,2.90E+07
39511,96.402,39.468,18.171,1.98E+07
39512,98.407,42.832,16.487,1.73E+07
39513,97.424,39.828,16.172,2.31E+07
39514,99.878,38.856,15.672,2.87E+07
39515,95.409,41.252,11.858,1.58E+07
39516,96.506,39.498,10.47,2.45E+07
39517,98.278,42.859,13.319,1.90E+07
39518,97.295,39.855,13.004,2.46E+07
39519,99.749,38.883,12.503,3.01E+07
39520,96.606,42.895,12.372,1.51E+07
39521,98.52,43.127,11.155,2.12E+07
39522,106.77,32.576,18.249,1.84E+07
39523,108.43,31.736,18.114,2.19E+07
39524,104.84,32.128,18.139,1.97E+07
39525,107.43,30.632,16.547,2.29E+07
39526,105.1,31.14,16.392,2.05E+07
39527,7.3597,52.227,125.17,2.34E+06
39528,3.3289,45.362,127.49,1.36E+06
39529,7.8028,46.26,127.11,1.30E+06
39530,5.4894,47.435,126.71,1.25E+06
39531,8.0644,44.408,127.74,1.19E+06
39532,-2.1168,45.055,127.41,1.39E+06
39533,-7.2992,42.961,126.99,1.31E+06
39534,-6.9725,45.021,127.49,1.34E+06
39535,-4.6576,46.263,127.09,1.35E+06
39536,-4.7947,41.395,126.1,1.11E+06
39537,2.7569,48.296,127.05,1.57E+06
39538,-1.9445,47.431,127.5,1.53E+06
39539,0.41752,48.641,127.04,1.39E+06
39540,-6.5663,50.645,126.06,2.11E+06
39541,-6.1986,52.504,125.15,2.90E+06
39542,-9.3803,51.353,126.44,2.37E+06
39543,-9.2181,54.401,123.56,2.84E+06
39544,96.225,49.593,10.067,6.96E+06
39545,95.944,48.048,12.646,8.15E+06
39546,97.601,48.705,11.61,9.79E+06
39547,95.324,46.156,11.981,7.30E+06
39548,97.238,46.388,10.764,1.04E+07
39549,-9.4418,44.095,127.48,9.24E+05
39550,-7.2641,40.469,126.08,1.16E+06
39551,2.6931,52.045,124.95,2.58E+06
39552,-1.6405,53.038,124.5,3.12E+06
39553,0.35376,52.39,124.95,2.69E+06
39554,1.3149,54.638,121.71,5.00E+06
39555,7.2307,49.194,126.67,1.86E+06
39556,9.8057,46.167,127.7,1.11E+06
39557,98.094,49.721,17.868,1.06E+07
39558,100.68,50.816,17.894,1.12E+07
39559,97.812,48.177,16.237,1.05E+07
39560,98.864,46.249,16.52,1.25E+07
39561,99.47,48.833,15.201,1.34E+07
39562,108.58,33.861,17.797,2.07E+07
39563,109.15,36.1,18.297,2.23E+07
39564,104.99,34.252,17.821,2.04E+07
39565,106.8,35.173,15.83,1.92E+07
39566,107.58,32.756,16.23,2.06E+07
39567,105.25,33.264,16.075,1.96E+07
39568,99.084,52.461,17.748,7.51E+06
39569,98.706,52.792,15.445,7.42E+06
39570,96.219,49.822,16.091,8.58E+06
39571,97.876,50.479,15.056,1.01E+07
39572,98.504,52.259,8.8221,9.28E+06
39573,96.219,49.822,11.882,7.47E+06
39574,97.876,50.479,10.846,9.74E+06
39575,109.25,33.37,9.2643,2.94E+07
39576,111.62,33.06,8.9616,2.71E+07
39577,111.01,32.197,11.273,2.73E+07
39578,107.35,32.383,8.9571,2.55E+07
39579,108.89,31.072,11.745,2.86E+07
39580,111.33,35.098,9.2634,2.72E+07
39581,110.73,34.234,11.575,2.65E+07
39582,107.07,34.42,9.259,2.54E+07
39583,107.82,35.526,11.648,2.46E+07
39584,108.6,33.109,12.047,2.70E+07
39585,106.38,35.861,9.9276,2.39E+07
39586,110.43,36.197,11.81,2.85E+07
39587,-6.8002,47.397,127.58,1.52E+06
39588,-9.6142,48.104,127.97,1.27E+06
39589,2.578,50.714,126.26,2.20E+06
39590,-4.1176,50.497,126.27,1.98E+06
39591,-2.1233,49.848,126.72,1.88E+06
39592,-7.2993,49.346,127.56,1.73E+06
39593,103.69,54.902,17.908,7.40E+06
39594,103.15,55.389,15.527,7.87E+06
39595,101.29,53.886,15.471,1.16E+07
39596,103.83,53.385,16.142,9.25E+06
39597,100.46,51.573,15.081,1.09E+07
39598,110.81,35.26,18.162,2.45E+07
39599,112.19,33.441,17.709,2.03E+07
39600,111.36,33.041,15.623,2.40E+07
39601,108.46,34.333,15.696,2.17E+07
39602,109.24,31.916,16.095,2.47E+07
39603,111.07,35.003,15.857,2.57E+07
39604,112.75,35.68,18.209,2.13E+07
39605,113.42,37.673,18.119,2.12E+07
39606,111.64,37.242,16.358,2.73E+07
39607,115.19,36.995,9.1414,1.68E+07
39608,114.79,35.469,10.998,1.93E+07
39609,113.09,33.925,11.272,2.41E+07
39610,112.8,35.887,11.507,2.64E+07
39611,103.11,54.097,8.9512,8.95E+06
39612,100.71,53.684,10.754,1.25E+07
39613,99.881,51.371,10.365,1.24E+07
39614,102.13,55.307,8.4239,8.52E+06
39615,115.01,35.006,15.395,1.53E+07
39616,113.31,33.462,15.67,1.99E+07
39617,114.8,35.854,17.666,1.58E+07
39618,113.01,35.424,15.904,2.23E+07
39619,116.28,37.676,11.178,1.31E+07
39620,117.5,42.329,9.3197,9.28E+06
39621,118.52,40.264,9.2051,6.29E+06
39622,117.02,41.29,11.451,1.04E+07
39623,117.69,39.549,11.776,9.00E+06
39624,115.84,39.542,11.233,1.52E+07
39625,107.77,55.218,18.026,5.90E+06
39626,109.35,56.143,18.315,7.36E+06
39627,112.14,53.939,17.95,6.83E+06
39628,111.73,54.204,15.465,6.92E+06
39629,109.71,55.386,16.099,7.54E+06
39630,111.07,55.668,18.092,7.52E+06
39631,107.91,53.701,16.259,6.47E+06
39632,108.4,55.515,9.0412,5.07E+06
39633,105.18,56.132,11.422,8.78E+06
39634,103.31,54.629,11.365,8.86E+06
39635,107.66,55.813,11.876,6.08E+06
39636,105.86,54.128,12.036,9.15E+06
39637,104.74,56.252,9.0349,8.82E+06
39638,107.29,57.173,18.332,7.41E+06
39639,105.18,56.735,15.662,8.10E+06
39640,107.66,56.416,16.116,6.48E+06
39641,105.86,54.731,16.276,7.72E+06
39642,114.18,34.606,13.309,1.79E+07
39643,115.67,36.999,15.305,1.58E+07
39644,117.29,38.023,13.632,9.39E+06
39645,113.89,36.568,13.544,2.13E+07
39646,115.44,38.016,13.089,1.63E+07
39647,118.23,40.461,18.02,7.69E+06
39648,117.87,42.97,18.117,8.40E+06
39649,116.92,42.398,15.979,1.07E+07
39650,115.97,39.632,17.976,1.45E+07
39651,117.59,40.657,16.303,9.20E+06
39652,109.23,57.341,16.405,8.37E+06
39653,110.59,57.623,18.398,8.34E+06
39654,119.34,43.392,9.2028,4.45E+06
39655,119.17,47.523,8.9164,7.95E+06
39656,118.86,47.056,11.419,8.11E+06
39657,117.85,44.418,11.449,8.45E+06
39658,119.73,44.846,11.116,5.40E+06
39659,116.24,47.91,8.6553,6.94E+06
39660,116.22,53.407,18.378,8.94E+06
39661,115.75,52.754,15.729,9.48E+06
39662,114.05,53.955,15.407,9.52E+06
39663,113.38,55.419,18.033,7.91E+06
39664,115.54,51.792,17.716,9.37E+06
39665,111.41,54.106,8.189,6.06E+06
39666,113.82,52.976,8.0973,7.88E+06
39667,112.69,53.222,10.39,7.88E+06
39668,112.95,51.292,7.9255,9.04E+06
39669,119.63,42.014,17.76,3.22E+06
39670,117.73,38.676,17.62,9.23E+06
39671,119.35,39.701,15.947,4.96E+06
39672,118.86,42.352,11.334,5.11E+06
39673,120.74,42.78,11.001,3.38E+06
39674,119.53,40.611,11.659,3.83E+06
39675,113.49,54.859,8.4285,5.03E+06
39676,112.36,55.105,10.721,6.39E+06
39677,110.34,56.287,11.355,7.10E+06
39678,117.96,51.659,8.4262,6.35E+06
39679,118.53,50.704,11.041,7.94E+06
39680,119.7,49.122,11.019,7.84E+06
39681,117.08,49.975,8.2544,7.80E+06
39682,119.98,46.479,18.153,5.06E+06
39683,119.33,46.589,15.689,6.36E+06
39684,118.32,43.951,15.719,7.16E+06
39685,117.95,47.209,17.699,7.02E+06
39686,120.2,44.379,15.385,4.41E+06
39687,118.99,42.21,16.043,4.76E+06
39688,119.34,50.779,18.656,5.13E+06
39689,120.03,48.545,15.985,6.33E+06
39690,118.65,49.164,17.995,7.35E+06
39691,116.47,52.774,10.952,9.32E+06
39692,114.77,53.975,10.629,8.52E+06
39693,115.03,52.046,8.1651,9.31E+06
39694,117.52,52.472,16.215,9.02E+06
39695,117.31,51.509,18.202,9.29E+06
39696,115.34,53.02,13.244,8.33E+06
39697,118.22,50.237,13.544,7.97E+06
39698,116.83,50.857,15.554,1.05E+07
39699,115.6,51.091,10.78,9.98E+06
39700,111.62,55.403,13.555,6.20E+06
39701,112.98,55.685,15.548,7.76E+06
39702,113.9,52.291,10.457,8.50E+06
39703,118.38,46.017,13.551,7.72E+06
39704,118,49.275,15.531,8.82E+06
39705,120.26,46.444,13.218,4.70E+06
39706,119.25,43.806,13.247,5.28E+06
39707,118.04,41.637,13.905,7.02E+06
39708,116.19,41.63,13.362,1.33E+07
39709,109.58,34.354,13.657,2.11E+07
39710,110.36,31.937,14.056,2.47E+07
39711,112.19,35.024,13.819,2.51E+07
39712,102.78,55.719,13.225,7.73E+06
39713,107.12,56.903,13.735,5.75E+06
39714,105.32,55.218,13.895,7.50E+06
39715,104.2,57.342,10.894,8.02E+06
39716,103.45,53.716,13.839,8.86E+06
39717,100.08,51.903,12.779,1.09E+07
39718,102.33,55.839,10.838,8.27E+06
39719,-1.7556,51.707,125.81,2.40E+06
39720,105.92,34.54,11.341,2.06E+07
39721,102.74,32.727,9.1008,2.51E+07
39722,104.48,34.874,9.6204,2.12E+07
39723,104.37,32.631,11.585,2.16E+07
39724,96.989,46.35,14.743,8.22E+06
39725,97.595,48.934,13.425,9.98E+06
39726,95.318,46.386,13.796,7.85E+06
39727,97.232,46.618,12.579,9.86E+06
39728,104.87,34.725,15.72,2.12E+07
39729,101.7,35.413,18.052,2.99E+07
39730,100.52,33.58,17.221,2.60E+07
39731,103.31,32.816,15.965,2.21E+07
39732,102.02,35.137,15.553,2.96E+07
39733,101.65,32.433,18.103,2.40E+07
39734,107.46,33.229,14.129,2.16E+07
39735,105.24,35.98,12.009,2.10E+07
39736,105.13,33.737,13.974,2.06E+07
39737,103.83,36.058,13.562,2.64E+07
39738,109.29,36.316,13.891,2.41E+07
39739,97.185,37.358,18.393,2.73E+07
39740,99.159,35.189,17.562,3.16E+07
39741,98.207,37.719,16.395,2.95E+07
39742,100.66,36.747,15.894,3.52E+07
39743,105.91,31.32,14.373,2.26E+07
39744,97.772,30.782,9.1796,2.95E+07
39745,99.637,29.584,9.0977,3.24E+07
39746,102.05,34.167,9.7694,2.54E+07
39747,101.94,31.924,11.734,2.51E+07
39748,97.596,32.769,10.852,2.64E+07
39749,99.99,31.015,11.07,2.74E+07
39750,100.65,34.245,11.322,3.09E+07
39751,98.013,33.016,8.6188,2.92E+07
39752,93.401,39.455,10.715,1.50E+07
39753,91.597,38.826,12.82,1.47E+07
39754,94.19,39.811,13.249,1.57E+07
39755,93.502,42.851,12.618,9.22E+06
39756,100.28,26.348,11.174,3.74E+07
39757,99.99,26.657,15.429,2.90E+07
39758,102.58,28.688,13.81,2.82E+07
39759,99.218,25.738,12.591,3.46E+07
39760,100.63,27.779,13.146,3.03E+07
39761,99.313,23.4,12.805,4.22E+07
39762,93.334,35.804,18.161,2.23E+07
39763,96.006,35.525,17.562,2.34E+07
39764,92.461,37.068,15.965,1.94E+07
39765,95.054,38.054,16.394,2.12E+07
39766,95.371,26.739,8.8313,3.49E+07
39767,97.236,25.541,8.7494,3.95E+07
39768,96.176,24.931,10.167,3.68E+07
39769,93.593,22.241,10.071,4.03E+07
39770,93.854,25.046,9.2673,3.40E+07
39771,94.157,24.509,11.673,3.20E+07
39772,96.27,22.593,10.381,4.39E+07
39773,93.75,31.494,9.1693,2.59E+07
39774,93.381,35.572,9.2782,2.29E+07
39775,91.576,34.944,11.383,1.91E+07
39776,90.944,31.708,9.0197,2.22E+07
39777,92.24,32.234,11.534,2.22E+07
39778,93.573,33.482,10.842,2.42E+07
39779,93.991,33.728,8.6085,2.63E+07
39780,90.379,33.137,10.321,1.95E+07
39781,-2.8876,38.308,124.61,1.84E+06
39782,-1.9268,37.4,122.33,3.08E+06
39783,92.534,22.964,17.843,2.33E+07
39784,96.888,26.069,17.873,2.42E+07
39785,96.115,25.151,15.034,2.82E+07
39786,94.097,24.729,16.541,2.45E+07
39787,92.579,24.523,18.993,2.01E+07
39788,94.391,22.533,17.107,2.85E+07
39789,95.434,26.595,16.136,2.43E+07
39790,94.86,22.709,19.585,2.41E+07
39791,94.176,25.706,18.857,2.22E+07
39792,91.403,31.555,18.019,2.35E+07
39793,87.981,29.522,16.802,2.40E+07
39794,91.193,30.109,15.975,2.17E+07
39795,89.323,28.026,16.091,2.08E+07
39796,91.489,27.139,16.451,2.02E+07
39797,89.971,26.934,18.903,2.17E+07
39798,88.635,29.699,18.394,2.55E+07
39799,89.661,30.59,18.915,2.60E+07
39800,91.568,28.117,18.768,2.25E+07
39801,93.336,19.455,12.596,4.46E+07
39802,93.069,17.587,13.988,4.71E+07
39803,94.195,19.527,14.764,4.16E+07
39804,96.014,19.807,12.906,4.87E+07
39805,4.5095,44.309,108.67,3.92E+07
39806,6.7602,45.335,108.24,4.40E+07
39807,1.5013,48.382,107.86,3.68E+07
39808,3.1046,45.204,106.77,3.77E+07
39809,2.1556,47.214,105.69,3.77E+07
39810,1.2532,46.341,108,3.36E+07
39811,2.4375,50.018,107.93,3.95E+07
39812,4.8401,48.989,107.48,4.05E+07
39813,4.9429,47.553,106.1,4.38E+07
39814,2.8891,55.294,116.81,1.24E+07
39815,83.581,31.439,13.233,3.09E+07
39816,88.024,35.023,13.362,2.23E+07
39817,85.476,31.727,14.34,2.74E+07
39818,85.068,31.558,12.056,2.38E+07
39819,86.827,33.216,12.3,2.22E+07
39820,-4.1141,49.301,106.24,3.52E+07
39821,-7.4763,47.423,108.82,2.85E+07
39822,-3.1494,48.289,108.04,3.11E+07
39823,-5.1895,44.895,108.44,2.10E+07
39824,-5.0619,46.707,106.25,2.66E+07
39825,-3.3975,46.248,108.17,2.67E+07
39826,-2.4681,35.648,111,5.84E+06
39827,-1.6063,35.156,109.07,8.07E+06
39828,1.812,35.544,109.53,1.58E+07
39829,-1.4056,36.036,113.29,6.02E+06
39830,2.1003,36.119,111.43,1.38E+07
39831,-1.3462,37.173,109.23,8.43E+06
39832,0.79047,36.806,109.56,1.54E+07
39833,-2.144,37.728,111.24,5.44E+06
39834,-3.8668,35.003,109.01,4.97E+06
39835,-6.0127,36.541,110.16,6.28E+06
39836,-3.6661,35.884,113.23,5.22E+06
39837,-3.6067,37.021,109.17,3.67E+06
39838,-4.4045,37.576,111.18,2.99E+06
39839,83.357,19.786,7.8282,2.58E+07
39840,85.6,18.296,8.076,3.69E+07
39841,89.074,20.585,9.7933,3.55E+07
39842,84.937,19.741,9.7254,2.71E+07
39843,86.9,18.841,9.5979,3.54E+07
39844,86.674,22.053,9.549,2.66E+07
39845,84.54,21.322,8.5889,2.39E+07
39846,88.086,19.336,7.6642,4.03E+07
39847,6.8676,39.988,107.97,4.79E+07
39848,4.5223,38.229,108.65,3.14E+07
39849,7.4637,42.197,108.86,4.69E+07
39850,3.8081,42.066,107.39,3.78E+07
39851,4.8106,38.804,110.55,2.93E+07
39852,4.6808,39.915,106.86,4.02E+07
39853,3.5008,39.491,108.68,3.19E+07
39854,-0.76623,51.064,101.86,4.52E+07
39855,-5.7073,51.97,103.96,3.62E+07
39856,-1.7681,50.328,105.87,3.90E+07
39857,-2.9249,50.044,101.87,3.90E+07
39858,-3.6806,48.746,104.08,3.43E+07
39859,-1.1138,49.16,103.7,3.86E+07
39860,-0.83187,51.965,105.94,4.20E+07
39861,1.9295,49.945,96.912,4.31E+07
39862,-0.95837,49.767,99.658,4.12E+07
39863,1.4841,48.435,98.797,4.24E+07
39864,0.8528,48.884,101.48,4.15E+07
39865,-0.15623,49.702,97.742,4.16E+07
39866,2.6283,49.876,100.6,4.51E+07
39867,87.01,14.286,8.0524,5.61E+07
39868,89.154,12.573,10.542,6.45E+07
39869,88.31,14.831,9.5743,5.46E+07
39870,86.998,13.18,10.472,5.44E+07
39871,88.491,10.507,7.2504,8.20E+07
39872,90.89,13.292,7.3956,7.33E+07
39873,89.496,15.326,7.6406,6.01E+07
39874,-4.5142,49.845,94.338,3.28E+07
39875,-6.2168,48.206,94.42,3.04E+07
39876,-4.6518,49.472,97.938,3.32E+07
39877,-3.8497,49.407,96.022,3.34E+07
39878,-7.0241,38.667,103.31,1.62E+07
39879,-5.4273,36.261,106.48,4.77E+06
39880,-7.5732,37.799,107.62,1.22E+07
39881,-6.3666,40.269,107.18,1.14E+07
39882,-5.64,37.893,104.74,8.06E+06
39883,-5.1672,38.279,106.64,6.05E+06
39884,-5.6944,40.125,105.11,1.23E+07
39885,-5.8057,39.114,97.797,2.43E+07
39886,-6.8073,41.429,100.72,2.19E+07
39887,-4.3658,36.581,101.22,6.90E+06
39888,-6.3806,37.391,99.425,2.05E+07
39889,-4.8145,38.548,102.18,1.18E+07
39890,-3.2756,38.614,100.39,1.43E+07
39891,-4.8689,40.781,102.55,1.63E+07
39892,-3.9823,39.884,98.828,1.94E+07
39893,-3.9679,41.226,100.56,1.92E+07
39894,7.3478,39.019,103.5,5.71E+07
39895,6.1769,37.046,107.32,3.84E+07
39896,9.1183,41.013,107.53,5.35E+07
39897,6.4652,37.621,109.22,3.59E+07
39898,6.3354,38.732,105.53,4.69E+07
39899,6.2497,41.97,98.595,5.74E+07
39900,4.3361,36.752,100.3,4.65E+07
39901,5.9361,39.179,97.407,6.31E+07
39902,7.04,41.302,100.54,6.20E+07
39903,6.4383,37.295,99.091,6.49E+07
39904,3.9718,38.271,98.334,4.94E+07
39905,5.1611,38.946,102.39,4.96E+07
39906,2.9104,38.57,100.19,4.12E+07
39907,4.3218,40.293,99.027,4.98E+07
39908,4.8975,41.239,100.93,5.10E+07
39909,4.4923,46.904,95.509,4.45E+07
39910,6.8961,45.755,99.057,5.56E+07
39911,6.0123,41.915,95.646,6.13E+07
39912,7.1162,44.038,98.779,6.00E+07
39913,4.0468,45.394,97.394,4.61E+07
39914,4.4759,43.936,95.084,4.93E+07
39915,4.398,43.029,97.266,4.88E+07
39916,6.7693,43.816,94.645,6.06E+07
39917,4.9737,43.975,99.169,4.98E+07
39918,7.2616,46.697,96.16,5.16E+07
39919,-9.15E-02,49.297,93.329,3.56E+07
39920,2.3405,49.378,92.23,3.63E+07
39921,2.2133,47.593,96.068,3.93E+07
39922,4.9744,50.377,94.715,3.82E+07
39923,2.6423,46.134,93.758,4.09E+07
39924,2.5335,47.006,91.799,3.89E+07
39925,0.57295,48.86,95.013,3.77E+07
39926,5.428,48.896,94.833,4.04E+07
39927,1.3789,47.989,93.306,3.66E+07
39928,7.6864,45.087,101,5.95E+07
39929,4.6171,46.443,99.616,4.56E+07
39930,5.5439,45.024,101.39,4.93E+07
39931,6.7731,47.231,102.71,5.13E+07
39932,5.7613,47.884,101.42,4.86E+07
39933,89.057,12.893,15.495,5.01E+07
39934,87.553,14.138,18.406,3.29E+07
39935,87.78,15.121,16.614,3.45E+07
39936,86.901,13.5,15.426,4.05E+07
39937,90.12,15.028,16.116,4.32E+07
39938,90.831,14.21,19.125,4.02E+07
39939,88.825,11.348,19.201,4.61E+07
39940,90.435,12.72,19.137,4.52E+07
39941,2.6718,33.804,97.411,4.29E+07
39942,0.11564,34.341,98.276,2.25E+07
39943,-1.72E-02,34.055,100.97,2.12E+07
39944,4.6009,34.813,99.033,5.25E+07
39945,2.1344,35.789,98.276,3.63E+07
39946,1.8228,34.711,102.32,2.78E+07
39947,3.3237,36.464,102.33,3.63E+07
39948,1.073,36.088,100.13,2.81E+07
39949,81.394,18.488,18.042,2.29E+07
39950,78.591,14.793,17.875,2.39E+07
39951,80.089,13.345,17.75,2.02E+07
39952,79.645,16.705,18.138,2.49E+07
39953,81.535,12.888,18.357,2.13E+07
39954,83.974,15.078,18.487,2.15E+07
39955,84.201,16.062,16.695,2.25E+07
39956,83.322,14.44,15.507,2.62E+07
39957,81.368,16.322,16.476,2.00E+07
39958,81.678,13.713,16.183,2.31E+07
39959,79.854,23.724,16.226,3.61E+07
39960,79.101,20.069,18.161,3.55E+07
39961,78.581,21.689,16.139,3.66E+07
39962,82.289,23.537,16.526,2.84E+07
39963,80.824,19.686,16.499,2.45E+07
39964,80.521,22.106,15.961,2.98E+07
39965,83.256,21.612,16.257,2.22E+07
39966,81.967,23.334,18.826,3.33E+07
39967,80.43,27.435,13.833,3.69E+07
39968,80.448,25.892,11.979,2.94E+07
39969,77.584,23.561,14.3,4.08E+07
39970,81.293,25.409,14.687,3.15E+07
39971,79.525,23.978,14.122,3.32E+07
39972,-6.1242,36.17,94.169,3.30E+07
39973,-3.8401,36.659,95.578,1.94E+07
39974,-6.2875,38.207,92.818,3.95E+07
39975,-5.9878,37.182,96.472,2.56E+07
39976,-3.6819,37.508,93.413,2.79E+07
39977,-4.6765,40.169,92.893,3.22E+07
39978,-3.7529,41.42,94.294,2.85E+07
39979,-3.5895,39.675,95.876,2.47E+07
39980,-6.4105,40.372,93.823,3.43E+07
39981,-2.8408,39.198,94.398,2.65E+07
39982,-5.2666,46.141,100.18,2.71E+07
39983,-6.0222,44.844,102.39,2.32E+07
39984,-5.4776,42.887,102.51,1.89E+07
39985,-4.5767,43.333,100.52,2.12E+07
39986,-8.2877,45.108,101.74,2.63E+07
39987,77.603,19.63,8.1536,1.85E+07
39988,74.451,19.569,10.852,3.50E+07
39989,75.612,17.504,8.5606,1.91E+07
39990,75.636,20.918,11.431,3.50E+07
39991,76.441,19.803,9.7727,2.47E+07
39992,78.255,16.822,8.0664,2.02E+07
39993,82.488,17.459,7.9072,2.98E+07
39994,81.825,18.903,9.5566,2.19E+07
39995,81.428,20.484,8.4201,1.99E+07
39996,80.549,17.455,9.0903,2.26E+07
39997,79.083,19.122,9.2786,1.83E+07
39998,78.585,13.549,8.8084,2.79E+07
39999,78.996,10.775,8.9407,4.09E+07
40000,82.818,14.185,8.6492,4.15E+07
40001,81.307,11.124,10.509,4.40E+07
40002,79.089,14.06,11.096,2.33E+07
40003,82.805,13.079,11.069,3.98E+07
40004,78.857,11.913,11.182,2.92E+07
40005,81.162,12.352,11.745,3.50E+07
40006,80.879,14.182,9.8322,3.20E+07
40007,84.017,6.4585,13.481,6.95E+07
40008,87.017,10.444,13.278,6.05E+07
40009,83.363,9.0964,12.649,5.52E+07
40010,84.861,11.051,13.209,5.06E+07
40011,82.15,8.0351,14.077,5.06E+07
40012,83.217,10.324,13.885,4.52E+07
40013,-6.8065,42.43,85.925,4.50E+07
40014,-7.1403,46.154,85.075,3.21E+07
40015,-6.7856,41.516,83.1,5.32E+07
40016,-6.5383,43.999,81.732,3.93E+07
40017,-4.5137,43.708,85.528,3.76E+07
40018,-5.4349,45.289,84.399,3.53E+07
40019,-3.9246,43.939,83.457,3.88E+07
40020,-5.2167,42.187,84.464,4.34E+07
40021,-4.85,42.173,82.433,4.48E+07
40022,-6.7129,38.543,87.348,5.58E+07
40023,-6.8678,40.003,84.719,5.76E+07
40024,-7.0254,39.213,89.168,5.00E+07
40025,-4.5959,42.195,87.147,4.10E+07
40026,-4.6185,39.762,87.652,4.28E+07
40027,-5.4144,41.175,89.243,4.09E+07
40028,-5.2989,40.674,86.083,4.73E+07
40029,-7.1485,41.379,90.172,4.45E+07
40030,-4.4279,48.272,86.866,2.47E+07
40031,-0.63487,48.099,85.754,2.95E+07
40032,-2.0706,48.836,90.183,3.10E+07
40033,0.36146,48.917,89.083,3.09E+07
40034,-1.8013,45.826,87.319,3.47E+07
40035,-2.7225,47.408,86.191,2.97E+07
40036,0.55438,46.544,88.652,3.38E+07
40037,0.5424,46.059,86.283,3.57E+07
40038,-0.60023,47.528,90.159,3.15E+07
40039,-2.2523,46.98,88.824,3.12E+07
40040,-5.8509,47.5,85.168,2.70E+07
40041,-5.3807,47.073,87.802,2.68E+07
40042,0.28883,33.875,95.447,3.17E+07
40043,0.88544,32.432,92.808,3.86E+07
40044,4.2719,36.231,94.52,5.83E+07
40045,4.606,34.617,92.85,6.82E+07
40046,4.7741,34.347,96.205,6.08E+07
40047,3.3895,33.368,92.196,6.32E+07
40048,0.44713,34.724,93.282,3.54E+07
40049,2.3076,35.322,95.448,4.55E+07
40050,2.3324,35.212,92.823,4.91E+07
40051,-4.5515,33.923,94.903,2.00E+07
40052,-3.9549,32.481,92.263,1.91E+07
40053,-6.9988,35.472,92.143,4.42E+07
40054,-6.6991,34.447,95.797,3.06E+07
40055,-4.3932,34.773,92.737,2.71E+07
40056,-8.5954,31.319,93.949,4.27E+07
40057,-1.6708,32.97,93.673,2.19E+07
40058,-2.4002,34.126,99.002,1.00E+07
40059,-4.415,34.936,97.206,1.34E+07
40060,-2.1091,35.262,94.147,2.36E+07
40061,-0.24861,35.86,96.312,2.73E+07
40062,-1.31,36.159,98.17,1.97E+07
40063,-2.0167,37.429,96.61,2.13E+07
40064,-1.268,36.952,95.132,2.53E+07
40065,73.383,2.0986,8.9732,6.04E+07
40066,73.416,5.0778,9.2162,4.24E+07
40067,77.529,3.0701,11.307,6.67E+07
40068,76.485,6.7037,9.0499,4.96E+07
40069,78.086,2.8891,8.3704,8.10E+07
40070,75.082,2.6286,10.904,5.85E+07
40071,74.983,6.0824,11.07,3.88E+07
40072,77.584,5.9918,12.046,4.85E+07
40073,73.71,3.9267,11.369,4.24E+07
40074,75.53,4.202,12.012,4.80E+07
40075,81.097,3.2262,13.396,7.54E+07
40076,81.152,6.1479,14.135,5.65E+07
40077,4.968,46.816,72.571,5.45E+07
40078,2.592,47.658,77.51,4.25E+07
40079,1.8301,47.136,75.752,4.44E+07
40080,5.1939,44.804,74.091,7.44E+07
40081,3.632,46.014,78.324,4.19E+07
40082,1.8029,45.322,76.715,4.37E+07
40083,3.3095,44.766,75.19,5.21E+07
40084,6.7199,38.747,87.799,8.36E+07
40085,6.7981,43.236,88.726,5.84E+07
40086,5.8238,39.966,91.43,6.63E+07
40087,6.1579,38.352,89.76,7.60E+07
40088,6.3804,42.591,86.307,5.54E+07
40089,5.6658,40.439,85.747,6.62E+07
40090,4.2875,41.987,90.868,5.52E+07
40091,4.1786,42.858,88.909,5.24E+07
40092,6.5808,41.867,90.429,6.59E+07
40093,3.8843,38.946,89.733,5.82E+07
40094,4.214,38.806,87.323,6.40E+07
40095,3.3881,40.704,86.653,5.43E+07
40096,3.0083,40.851,89.129,5.09E+07
40097,4.1666,42.373,86.54,5.15E+07
40098,7.3355,39.695,89.891,7.90E+07
40099,74.594,16.644,15.393,3.79E+07
40100,71.352,17.126,12.958,4.93E+07
40101,75.647,18.556,15.656,3.97E+07
40102,75.127,20.175,13.635,4.13E+07
40103,75.608,17.272,13.052,2.89E+07
40104,73.062,16.089,13.187,3.68E+07
40105,75.932,19.06,11.977,3.03E+07
40106,76.743,13.014,17.606,2.42E+07
40107,74.215,12.931,17.969,3.55E+07
40108,76.299,16.374,17.994,3.67E+07
40109,76.26,15.091,15.39,2.69E+07
40110,73.714,13.908,15.525,3.38E+07
40111,78.022,15.991,16.332,2.55E+07
40112,76.027,12.943,15.476,2.20E+07
40113,7.6632,31.16,84.436,1.49E+08
40114,7.6291,29.881,86.919,1.51E+08
40115,7.6788,34.026,87.211,1.19E+08
40116,7.1168,33.631,89.172,1.13E+08
40117,5.9003,32.382,88.518,1.07E+08
40118,5.6171,30.317,85.43,1.17E+08
40119,7.0534,32.76,85.556,1.23E+08
40120,-1.3383,30.355,88.764,2.79E+07
40121,1.4299,32.463,90.421,5.07E+07
40122,-1.5125,33.819,91.507,2.86E+07
40123,-1.0103,32.607,88.586,3.65E+07
40124,0.37277,34.307,91.048,3.90E+07
40125,-6.6919,37.629,84.524,6.33E+07
40126,-7.0036,35.346,83.964,7.89E+07
40127,-6.8495,36.839,88.972,5.61E+07
40128,-4.2439,36.14,89.567,4.02E+07
40129,-5.8354,34.137,85.433,6.46E+07
40130,-3.7417,34.928,86.646,4.49E+07
40131,-4.4426,37.387,87.457,4.81E+07
40132,-4.7527,36.556,85.299,5.52E+07
40133,-5.123,38.3,85.887,5.27E+07
40134,-2.1599,47.526,75.481,3.83E+07
40135,-5.2407,45.903,77.209,3.39E+07
40136,-3.5792,46.048,74.182,3.54E+07
40137,-2.1871,45.711,76.443,3.52E+07
40138,3.346,46.879,69.16,5.22E+07
40139,6.3111,44.65,70.861,8.10E+07
40140,8.2255,47.81,68.953,6.44E+07
40141,73.939,12.751,8.8628,1.86E+07
40142,76.676,11.922,8.6057,2.80E+07
40143,76.769,15.208,10.761,1.90E+07
40144,74.224,14.024,10.896,2.13E+07
40145,76.537,13.06,10.847,2.02E+07
40146,78.559,15.329,9.4973,2.16E+07
40147,77.093,16.996,9.6856,1.84E+07
40148,75.43,13.011,7.5987,2.24E+07
40149,8.0988,38.581,77.343,9.90E+07
40150,7.1602,33.915,80.686,1.29E+08
40151,8.7456,35.914,76.891,1.50E+08
40152,5.2217,38.471,78.747,8.11E+07
40153,6.8631,34.807,78.318,1.26E+08
40154,6.5504,35.515,81.806,1.05E+08
40155,6.1217,38.474,81.408,8.56E+07
40156,4.9727,34.828,80.289,9.38E+07
40157,4.7327,36.113,78.443,9.09E+07
40158,3.7526,37.387,80.694,7.55E+07
40159,7.688,38.655,80.172,9.33E+07
40160,-1.2113,45.721,71.043,3.13E+07
40161,-2.6877,40.312,72.737,3.12E+07
40162,-1.772,37.936,73.206,4.71E+07
40163,1.7478,40.054,75.407,5.08E+07
40164,-1.5583,42.194,73.077,2.88E+07
40165,-2.7365,40.229,74.984,4.18E+07
40166,-0.16613,41.858,75.338,4.16E+07
40167,0.50566,38.055,73.291,5.40E+07
40168,-0.31261,39.144,74.961,4.62E+07
40169,1.3405,41.302,73.813,4.78E+07
40170,68.705,5.2383,18.036,3.19E+07
40171,70.964,6.0826,18.475,2.68E+07
40172,66.544,8.5279,16.598,5.75E+07
40173,71.129,9.5261,18.149,3.93E+07
40174,66.738,6.3468,18.115,5.05E+07
40175,68.234,6.5666,15.783,3.38E+07
40176,68.507,10.063,17.186,5.26E+07
40177,68.826,8.951,15.207,3.94E+07
40178,70.177,7.5996,16.684,3.17E+07
40179,67.178,7.783,18.687,5.78E+07
40180,75.712,11.482,17.844,2.48E+07
40181,79.687,11.109,18.089,2.10E+07
40182,77.757,13.642,15.264,1.99E+07
40183,77.98,10.426,18.59,2.02E+07
40184,79.519,14.542,16.207,1.99E+07
40185,77.524,11.495,15.351,2.02E+07
40186,78.763,9.645,16.105,2.57E+07
40187,79.829,11.934,15.914,2.27E+07
40188,-7.3284,32.726,80.149,1.06E+08
40189,-6.1601,31.516,81.618,8.98E+07
40190,-6.7898,29.654,77.54,1.22E+08
40191,-5.4574,33.76,78.789,8.56E+07
40192,-4.6405,32.447,80.054,7.77E+07
40193,-6.8063,32.2,77.073,1.11E+08
40194,-5.4041,30.548,79.05,9.02E+07
40195,-3.3681,30.644,85.103,4.03E+07
40196,-1.2745,31.435,86.316,3.77E+07
40197,0.88258,29.226,85.064,5.96E+07
40198,-1.5317,28.851,84.265,3.57E+07
40199,-7.6641,41.694,73.273,6.78E+07
40200,-8.1962,43.431,76.639,5.30E+07
40201,-6.5347,43.576,73.613,5.13E+07
40202,-7.7129,41.611,75.52,5.99E+07
40203,74.634,-4.2387,12.89,9.10E+07
40204,77.597,-0.43241,12.896,8.30E+07
40205,75.151,-0.87393,12.493,7.44E+07
40206,73.572,-2.8331,12.198,7.91E+07
40207,76.248,-1.5213,14.003,7.85E+07
40208,74.883,-2.6749,14.061,7.79E+07
40209,9.9837,37.619,74.508,1.58E+08
40210,7.937,41.462,73.67,1.05E+08
40211,6.4598,40.175,76.364,8.82E+07
40212,6.0525,41.423,74.769,8.43E+07
40213,8.9261,40.36,77.789,9.33E+07
40214,9.9581,41.204,74.112,1.29E+08
40215,64.666,10.392,11.595,5.93E+07
40216,63.607,8.8098,8.2028,4.40E+07
40217,66.948,10.815,10.204,4.04E+07
40218,63.373,10.655,7.2278,5.13E+07
40219,70.472,14.39,13.089,4.44E+07
40220,68.35,13.949,14.571,6.06E+07
40221,68.669,12.838,12.592,4.64E+07
40222,7.4257,29.676,84.128,1.57E+08
40223,5.4137,30.112,82.639,1.27E+08
40224,7.1626,31.846,79.278,1.50E+08
40225,6.8499,32.554,82.765,1.36E+08
40226,5.2722,31.867,81.248,1.21E+08
40227,6.6779,29.729,80.218,1.58E+08
40228,68.688,1.5915,8.7273,4.08E+07
40229,70.916,2.9173,8.8277,4.37E+07
40230,68.241,-0.37332,8.1354,5.40E+07
40231,72.582,0.46811,10.515,6.02E+07
40232,71.004,-1.4911,10.22,6.47E+07
40233,71.209,1.7662,10.98,4.38E+07
40234,70.057,-0.11732,11.426,4.70E+07
40235,68.792,-1.1463,10.339,5.12E+07
40236,-7.1586,36.807,81.336,8.16E+07
40237,-6.5996,41.573,80.527,5.16E+07
40238,-6.1164,39.752,79.408,5.90E+07
40239,-5.2875,37.841,79.975,6.48E+07
40240,-4.9076,38.017,82.67,5.73E+07
40241,-5.278,39.761,83.259,5.52E+07
40242,-4.9114,39.747,81.228,5.62E+07
40243,-6.8728,22.866,76.983,1.34E+08
40244,-4.9283,22.819,80.102,6.64E+07
40245,-5.0426,21.723,79.679,7.20E+07
40246,-4.7322,23.304,78.514,7.47E+07
40247,-5.7845,21.159,74.659,1.36E+08
40248,-7.3048,23.775,71.242,2.35E+08
40249,-6.8318,26.126,75.062,1.52E+08
40250,-5.0892,23.449,73.838,1.42E+08
40251,-6.7148,25.758,72.683,1.85E+08
40252,-5.1298,24.309,76.098,1.12E+08
40253,-3.4958,22.681,80.382,4.78E+07
40254,-1.7156,23.459,80.008,5.54E+07
40255,-2.4212,26.148,81.421,2.83E+07
40256,-3.1854,24.262,79.217,5.29E+07
40257,72.187,-4.3259,12.548,7.91E+07
40258,71.515,-6.5918,12.418,8.91E+07
40259,70.82,-5.6082,14.003,7.32E+07
40260,73.497,-4.1677,14.411,7.78E+07
40261,1.3474,22.568,79.315,1.04E+08
40262,3.4885,21.26,78.541,1.49E+08
40263,1.0216,21.441,78.239,1.23E+08
40264,3.1459,23.444,78.089,1.25E+08
40265,1.7213,22.732,77.812,1.15E+08
40266,3.841,22.716,80.104,1.44E+08
40267,8.748,33.845,75.483,1.74E+08
40268,6.0292,30.223,70.715,2.49E+08
40269,1.5751,31.252,69.251,2.01E+08
40270,4.406,31.466,68.968,2.87E+08
40271,5.3833,32.652,74.08,1.57E+08
40272,1.5477,32.976,71.216,1.47E+08
40273,1.5336,30.24,72.255,1.48E+08
40274,2.4997,34.316,72.392,1.27E+08
40275,3.2529,33.958,74.204,1.25E+08
40276,3.5358,29.85,70.889,1.93E+08
40277,3.3676,31.257,73.309,1.51E+08
40278,70.595,3.6674,18.421,2.06E+07
40279,67.694,-0.16118,18.055,1.64E+07
40280,66.369,3.9316,18.061,3.94E+07
40281,67.864,4.1514,15.728,2.48E+07
40282,66.2,1.3902,17.971,2.50E+07
40283,65.876,2.0067,15.385,2.35E+07
40284,69.807,5.1845,16.629,2.32E+07
40285,69.936,3.2087,15.679,1.98E+07
40286,68.784,1.3251,16.125,1.96E+07
40287,75.05,3.7725,18.214,2.74E+07
40288,72.066,6.0287,17.068,2.04E+07
40289,72.195,4.053,16.118,2.20E+07
40290,74.015,4.3283,16.761,2.55E+07
40291,68.722,4.5707,8.9703,2.60E+07
40292,63.732,2.0118,8.2508,2.52E+07
40293,66.047,1.28,8.278,3.36E+07
40294,64.194,4.741,8.5952,2.41E+07
40295,66.943,4.3622,11.172,2.03E+07
40296,64.955,2.2176,10.829,2.19E+07
40297,69.015,3.4196,11.123,2.58E+07
40298,67.863,1.536,11.569,2.76E+07
40299,66.598,0.50702,10.482,3.07E+07
40300,71.281,8.3509,9.1614,2.05E+07
40301,74.019,7.5224,8.9044,3.43E+07
40302,69.171,5.688,11.273,2.01E+07
40303,69.764,8.0725,10.697,1.90E+07
40304,72.516,6.9011,10.924,2.55E+07
40305,71.114,6.7211,12.174,2.02E+07
40306,71.243,4.7454,11.224,2.80E+07
40307,-4.9539,40.694,53.368,1.24E+08
40308,6.5342,29.123,68.434,3.58E+08
40309,7.3639,26.794,72.23,2.70E+08
40310,8.7565,29.151,68.975,4.22E+08
40311,5.664,27.507,70.354,2.61E+08
40312,9.3707,27.745,68.246,4.64E+08
40313,9.303,28.74,70.331,3.46E+08
40314,-5.6736,16.047,74.004,1.60E+08
40315,-1.5245,18.939,74.545,1.64E+08
40316,-3.6033,20.737,73.93,1.38E+08
40317,-3.0432,19.2,71.583,1.93E+08
40318,-2.5,19.667,75.906,1.37E+08
40319,-4.9394,16.029,72.386,1.82E+08
40320,-5.7921,17.57,75.028,1.52E+08
40321,66.122,-9.6943,8.8179,9.61E+07
40322,68.039,-11.015,12.038,9.42E+07
40323,66.357,-12.53,10.692,9.80E+07
40324,68.857,-9.1296,10.637,9.51E+07
40325,66.243,-10.006,11.202,8.57E+07
40326,68.612,-11.362,8.1544,1.16E+08
40327,69.414,-9.6801,8.3569,1.12E+08
40328,64.546,-11.417,9.8295,9.13E+07
40329,63.597,-5.9303,7.9843,6.96E+07
40330,62.107,-8.3812,9.1236,7.42E+07
40331,64.432,-8.8932,10.339,7.90E+07
40332,63.799,-6.8722,9.9316,6.67E+07
40333,61.829,-9.4014,7.7025,8.70E+07
40334,61.92,-7.2462,7.6253,7.49E+07
40335,4.3793,40.33,53.265,8.19E+07
40336,6.2754,37.165,52.705,1.36E+08
40337,7.8443,39.907,53.237,1.39E+08
40338,8.3478,37.467,52.497,1.77E+08
40339,-1.8299,22.363,79.585,6.60E+07
40340,-3.2996,23.167,78.794,5.65E+07
40341,-2.1557,21.236,78.51,9.56E+07
40342,66.463,-12.737,13.05,8.90E+07
40343,68.963,-9.3372,12.995,8.62E+07
40344,68.268,-8.3536,14.58,7.02E+07
40345,66.349,-10.214,13.559,7.67E+07
40346,66.321,-11.792,15.147,7.69E+07
40347,68.427,-11.792,17.12,7.80E+07
40348,66.526,-13.287,14.432,8.45E+07
40349,64.676,-4.3617,17.813,2.25E+07
40350,67.722,-4.3151,16.447,3.87E+07
40351,65.558,-1.5941,18.044,1.71E+07
40352,65.157,-2.9607,16.541,2.20E+07
40353,68.142,-1.6591,16.198,2.78E+07
40354,66.877,-2.6881,15.111,3.18E+07
40355,63.007,-15.833,11.846,8.96E+07
40356,64.667,-11.729,12.214,8.09E+07
40357,62.665,-13.242,12.321,8.12E+07
40358,64.639,-13.306,13.801,8.13E+07
40359,64.844,-14.802,13.086,8.89E+07
40360,0.20025,29.093,51.963,1.80E+08
40361,-4.7905,28.514,53.437,2.91E+08
40362,0.28375,31.215,51.513,1.28E+08
40363,-3.7879,27.785,51.475,2.53E+08
40364,-1.5459,28.206,53.795,2.34E+08
40365,-2.118,30.244,53.793,2.35E+08
40366,-4.0343,31.038,54.025,2.91E+08
40367,-8.5316,29.363,55.466,4.92E+08
40368,-7.7753,31.887,56.054,4.86E+08
40369,61.749,7.0451,15.606,8.07E+07
40370,64.207,7.2212,16.622,6.57E+07
40371,65.703,7.441,14.289,4.76E+07
40372,65.976,10.937,15.693,6.87E+07
40373,66.296,9.8255,13.714,5.45E+07
40374,64.647,8.6575,17.194,7.37E+07
40375,2.0802,30.152,66.97,3.11E+08
40376,-0.77815,31.662,69.218,1.79E+08
40377,-1.4587,29.212,65.144,2.89E+08
40378,-3.4549,28.791,69.026,2.10E+08
40379,1.3933,28.125,65.637,2.86E+08
40380,-0.79227,28.926,70.257,1.91E+08
40381,1.2099,28.536,68.89,2.24E+08
40382,-1.066,27.712,67.756,2.41E+08
40383,-7.4875,24.578,65.4,3.72E+08
40384,-7.5376,24.171,60.816,4.36E+08
40385,-7.0905,23.147,62.962,4.02E+08
40386,-8.7662,26.849,62.877,5.94E+08
40387,-4.9013,26.981,62.959,3.65E+08
40388,-5.8941,25.098,61.236,3.82E+08
40389,-4.9952,24.577,63.41,3.39E+08
40390,-9.0289,26.137,64.154,5.09E+08
40391,3.5127,29.147,60.303,4.18E+08
40392,7.5446,27.641,61.193,5.87E+08
40393,7.0106,29.859,59.522,5.62E+08
40394,5.3316,29.533,63.808,4.46E+08
40395,5.161,28.986,58.865,4.32E+08
40396,5.0188,27.077,59.961,4.40E+08
40397,4.6448,27.506,62.476,4.33E+08
40398,55.867,-1.9345,16.101,5.58E+07
40399,57.405,2.6865,15.214,8.41E+07
40400,56.727,1.9368,12.924,7.48E+07
40401,53.973,-0.28141,12.521,7.43E+07
40402,57.017,-0.84596,12.955,4.95E+07
40403,54.741,-1.7108,14.147,5.90E+07
40404,57.153,-1.4952,14.929,4.99E+07
40405,57.962,-7.8755,18.028,2.30E+07
40406,53.248,-5.7191,17.867,3.84E+07
40407,59.353,-5.0661,17.69,2.25E+07
40408,55.763,-7.1651,18.313,2.40E+07
40409,55.136,-6.6543,15.908,2.79E+07
40410,55.282,-4.3305,15.928,3.78E+07
40411,57.559,-6.0569,16.062,2.53E+07
40412,57.694,-4.115,16.709,2.96E+07
40413,57.841,-4.1255,19.036,3.30E+07
40414,58.806,3.938,13.817,7.79E+07
40415,61.943,4.8639,17.123,7.34E+07
40416,61.774,2.3225,17.034,5.58E+07
40417,61.45,2.939,14.448,5.23E+07
40418,60.908,-8.3873,17.836,3.19E+07
40419,57.318,-10.486,18.459,3.51E+07
40420,61.238,-10.531,18.162,4.39E+07
40421,60.032,-11.714,15.556,5.66E+07
40422,57.79,-11.676,16.496,4.83E+07
40423,59.114,-9.3781,16.208,3.94E+07
40424,60.04,-13.603,17.175,5.70E+07
40425,62.007,-11.779,17.036,5.59E+07
40426,3.5526,26.288,51.226,2.43E+08
40427,5.1044,28.801,52.736,2.50E+08
40428,3.0285,30.378,51.626,1.57E+08
40429,1.1989,27.368,53.908,2.40E+08
40430,3.7826,26.845,53.387,2.63E+08
40431,3.7574,28.764,54.437,2.79E+08
40432,4.151,30.428,53.467,2.34E+08
40433,-6.3144,13.629,71.638,1.97E+08
40434,-7.167,15.169,74.28,1.78E+08
40435,56.428,-19.799,16.452,7.59E+07
40436,55.185,-19.203,12.22,8.12E+07
40437,59.399,-18.144,12.767,8.28E+07
40438,54.858,-18.265,15.09,7.59E+07
40439,56.764,-17.293,12.682,7.77E+07
40440,59.064,-17.441,14.861,7.51E+07
40441,55.829,-19.929,14.125,8.02E+07
40442,53.304,-20.97,19.38,7.88E+07
40443,53.72,-19.191,17.997,7.27E+07
40444,54.691,-20.854,17.032,7.75E+07
40445,2.7411,19.977,76.002,1.73E+08
40446,-0.82917,21.229,73.724,1.62E+08
40447,2.6624,18.765,72.451,2.25E+08
40448,-0.26904,19.692,71.377,2.18E+08
40449,1.79,21.109,73.005,1.95E+08
40450,0.27415,20.159,75.7,1.68E+08
40451,2.3984,22.161,75.55,1.54E+08
40452,0.97393,21.449,75.273,1.56E+08
40453,-0.44674,29.039,61.356,3.34E+08
40454,0.36297,28.037,57.708,3.15E+08
40455,-0.20917,30.076,57.706,2.94E+08
40456,2.9215,29.433,58.238,3.42E+08
40457,2.7794,27.524,59.335,3.49E+08
40458,2.4053,27.953,61.849,3.38E+08
40459,0.50083,27.757,60.027,3.32E+08
40460,59.549,1.9836,9.5797,3.94E+07
40461,60.012,4.7127,9.9241,5.60E+07
40462,58.418,0.40557,11.558,4.20E+07
40463,60.772,2.1893,12.158,4.38E+07
40464,-7.3692,21.18,67.653,3.02E+08
40465,-6.9721,19.75,65.214,3.33E+08
40466,-7.3365,16.672,66.763,2.80E+08
40467,-5.408,17.581,65.996,2.75E+08
40468,-4.5935,19.318,67.902,2.46E+08
40469,-7.0347,18.044,65.352,3.10E+08
40470,-6.4897,16.147,68.704,2.44E+08
40471,-6.9421,22.247,65.478,3.37E+08
40472,-5.1236,23.353,70.513,2.14E+08
40473,-6.7492,25.662,69.358,2.54E+08
40474,-4.5635,21.816,68.166,2.52E+08
40475,-4.3603,24.582,68.088,2.42E+08
40476,-4.8469,23.678,65.927,2.83E+08
40477,-8.8806,25.237,66.67,4.41E+08
40478,7.3965,18.411,64.877,3.67E+08
40479,5.4222,21.257,66.748,3.22E+08
40480,5.8168,19.055,68.589,3.11E+08
40481,5.6409,18.342,66.42,3.28E+08
40482,5.8118,19.851,65.019,3.45E+08
40483,7.6859,21.082,57.414,4.12E+08
40484,7.2051,15.728,59.463,3.31E+08
40485,7.6485,17.588,55.25,3.33E+08
40486,7.3924,17.569,60.702,3.67E+08
40487,7.4532,15.857,57.177,3.21E+08
40488,5.8573,18.386,56.766,3.47E+08
40489,5.1718,16.336,57.981,3.33E+08
40490,5.2689,17.644,59.932,3.38E+08
40491,5.8265,19.326,58.679,3.58E+08
40492,5.4315,22.38,53.789,3.57E+08
40493,7.7842,20.346,54.397,3.67E+08
40494,5.9909,24.08,53.469,3.49E+08
40495,8.5793,25.212,59.008,5.51E+08
40496,5.9929,21.144,55.913,3.80E+08
40497,6.2209,24.637,55.63,3.76E+08
40498,6.0536,24.647,57.777,3.98E+08
40499,5.9621,22.084,57.826,3.90E+08
40500,50.471,-9.8132,17.871,2.84E+07
40501,48.984,-4.7508,15.334,6.47E+07
40502,52.604,-8.3299,18.298,2.83E+07
40503,47.934,-7.7864,17.97,4.39E+07
40504,51.977,-7.8191,15.892,3.28E+07
40505,52.123,-5.4954,15.913,4.23E+07
40506,50.55,-6.6624,14.466,3.95E+07
40507,49.771,-8.6556,15.987,3.46E+07
40508,47.769,-6.9379,15.469,4.72E+07
40509,61.927,-1.2502,7.8226,3.49E+07
40510,63.285,4.70E-02,7.6589,3.31E+07
40511,61.432,3.508,7.9761,2.77E+07
40512,59.838,-0.79918,9.6104,2.73E+07
40513,62.192,0.98454,10.21,2.45E+07
40514,48.694,-13.546,18.369,4.85E+07
40515,52.985,-11.259,18.318,3.51E+07
40516,48.315,-10.716,17.99,3.17E+07
40517,51.501,-15.2,17.263,5.66E+07
40518,52.379,-12.833,19.164,3.99E+07
40519,52.358,-10.748,15.913,3.73E+07
40520,53.458,-12.449,16.355,4.73E+07
40521,50.152,-11.585,16.007,3.90E+07
40522,49.777,-14.726,16.148,5.72E+07
40523,47.712,-12.486,16.231,4.31E+07
40524,51.484,-13.464,15.537,5.17E+07
40525,1.0416,12.764,68.962,3.18E+08
40526,3.3837,13.058,69.077,2.95E+08
40527,3.1759,16.38,70.336,2.71E+08
40528,1.3018,14.922,67.985,2.96E+08
40529,3.0001,15.667,68.168,2.95E+08
40530,45.106,-2.9592,13.088,9.56E+07
40531,50.249,-1.9329,11.769,7.89E+07
40532,47.515,-4.5374,10.412,6.20E+07
40533,51.018,-3.3622,13.396,6.47E+07
40534,49.444,-4.5292,11.949,5.90E+07
40535,46.664,-4.8048,12.952,6.95E+07
40536,-6.4598,20.669,52.63,3.63E+08
40537,-6.8422,18.294,54.575,3.43E+08
40538,-7.3352,21.91,56.9,4.18E+08
40539,-7.2643,19.458,57.121,3.80E+08
40540,-7.1338,24.025,55.038,3.96E+08
40541,-5.4064,20.355,57.416,3.54E+08
40542,-5.1294,20.085,54.767,3.51E+08
40543,-5.5324,18.833,56.128,3.46E+08
40544,-5.6138,22.012,54.983,3.61E+08
40545,3.6008,22.62,50.697,2.94E+08
40546,3.5516,19.244,50.254,3.23E+08
40547,1.0716,19.631,50.749,3.27E+08
40548,3.6028,19.684,53.141,3.26E+08
40549,3.8308,23.177,52.858,3.11E+08
40550,2.466,18.622,51.946,3.33E+08
40551,1.7091,21.015,52.568,3.17E+08
40552,30.071,-7.326,21.731,2.31E+08
40553,25.244,-6.5407,24.543,3.64E+08
40554,34.498,-20.595,20.63,2.31E+08
40555,32.555,-21.922,19.91,2.24E+08
40556,35.55,-22.77,19.842,2.78E+08
40557,32.259,-24.74,22.089,3.78E+08
40558,35.893,-23.488,21.607,3.34E+08
40559,32.615,-23.156,22.388,3.25E+08
40560,54.07,-12.317,7.1297,7.28E+07
40561,59.263,-15.576,10.014,8.81E+07
40562,55.056,-14.647,7.8435,8.45E+07
40563,58.921,-12.984,10.489,7.97E+07
40564,56.628,-14.725,9.9293,8.25E+07
40565,55.293,-12.67,9.441,7.16E+07
40566,57.074,-12.074,9.6194,7.35E+07
40567,58.321,-11.979,7.7448,8.73E+07
40568,-43.872,-4.4221,67.51,5.37E+07
40569,-44.283,-6.2524,68.468,3.44E+07
40570,-46.172,-4.3495,68.169,5.78E+07
40571,-45.23,-6.1833,70.638,3.71E+07
40572,-46.747,-4.2649,71.421,5.66E+07
40573,-43.232,-3.7208,71.964,6.71E+07
40574,-6.0709,18.009,52.152,3.13E+08
40575,-5.3599,23.012,50.653,3.20E+08
40576,-3.2933,19.363,50.344,3.27E+08
40577,-4.7979,17.438,49.666,3.26E+08
40578,-4.3581,19.8,52.345,3.29E+08
40579,-4.8426,21.727,52.56,3.34E+08
40580,-8.1247,21.182,48.51,3.49E+08
40581,6.6414,-1.5718,65.921,1.26E+08
40582,1.0198,8.9782,66.083,3.26E+08
40583,2.1486,11.163,67.929,3.14E+08
40584,-1.1821,10.526,65.286,3.22E+08
40585,6.68E-02,13.027,66.836,3.21E+08
40586,1.5067,11.682,65.473,3.22E+08
40587,-2.1005,11.709,67.065,3.02E+08
40588,-6.2804,5.284,64.922,2.01E+08
40589,-6.8381,5.276,63.087,1.97E+08
40590,-6.2156,11.035,62.389,2.50E+08
40591,-6.7582,8.9818,60.979,2.23E+08
40592,-4.2738,9.1002,63.127,2.60E+08
40593,-5.7417,6.6843,62.115,2.37E+08
40594,-7.4762,8.9252,64.471,2.05E+08
40595,-6.818,6.3442,65.204,1.99E+08
40596,-5.1922,10.283,64.906,2.46E+08
40597,7.0473,14.973,61.899,3.19E+08
40598,7.1081,13.262,58.373,2.77E+08
40599,5.9441,11.422,59.438,2.74E+08
40600,4.8267,13.74,59.178,2.97E+08
40601,5.0335,12.813,61.896,2.88E+08
40602,6.6547,12.98,62.857,2.86E+08
40603,4.9238,15.049,61.129,2.99E+08
40604,7.6779,10.968,60.531,2.39E+08
40605,-8.571,-9.2203,66.53,4.10E+07
40606,50.654,-21.154,17.241,8.77E+07
40607,51.734,-19.436,18.019,7.79E+07
40608,52.705,-21.1,17.054,8.31E+07
40609,50.21,-22.077,20.134,9.04E+07
40610,43.645,-13.263,18.663,5.17E+07
40611,44.211,-15.857,18.734,7.81E+07
40612,46.158,-11.519,18.467,3.47E+07
40613,49.343,-16.003,17.741,6.28E+07
40614,45.836,-15.405,15.913,6.38E+07
40615,47.619,-15.529,16.625,6.37E+07
40616,45.555,-13.289,16.708,4.89E+07
40617,39.199,-9.9085,19.093,8.38E+07
40618,37.82,-12.462,19.243,8.66E+07
40619,41.319,-14.771,18.551,7.35E+07
40620,43.266,-10.433,18.284,5.28E+07
40621,38.405,-11.579,17.407,7.69E+07
40622,39.314,-13.292,15.934,7.46E+07
40623,40.458,-10.291,16.769,6.72E+07
40624,42.663,-12.204,16.525,5.81E+07
40625,41.045,-14.221,15.96,7.25E+07
40626,39.028,-14.076,17.711,8.25E+07
40627,49.339,-13.937,5.196,6.21E+07
40628,48.998,-8.6775,7.1134,3.82E+07
40629,51.9,-7.8909,6.5716,4.43E+07
40630,51.832,-13.227,6.9335,6.73E+07
40631,50.928,-8.6693,8.6501,4.06E+07
40632,52.069,-11.251,8.531,5.60E+07
40633,49.72,-13.413,7.5342,5.95E+07
40634,48.489,-10.535,6.3831,4.61E+07
40635,49.721,-11.012,8.4553,4.91E+07
40636,6.9578,9.4278,50.236,2.67E+08
40637,7.5255,7.0131,51.658,2.22E+08
40638,7.3525,8.1186,53.933,2.13E+08
40639,7.4561,11.677,54.177,2.38E+08
40640,5.1054,10.858,52.416,2.86E+08
40641,5.6467,8.4491,52.04,2.76E+08
40642,6.2921,9.8371,55.243,2.48E+08
40643,4.9022,9.617,53.841,2.77E+08
40644,-1.5524,11.936,48.45,3.93E+08
40645,2.2425,15.941,49.273,3.55E+08
40646,-0.23739,16.328,49.768,3.67E+08
40647,1.5391,13.034,50.81,3.68E+08
40648,-1.742,14.403,49.09,3.60E+08
40649,-0.52453,11.664,50.47,3.82E+08
40650,1.157,15.32,50.966,3.67E+08
40651,-0.60749,14.485,51.319,3.66E+08
40652,7.5514,15.122,54.16,2.77E+08
40653,5.9042,17.209,50.862,2.97E+08
40654,5.9555,17.65,53.749,3.08E+08
40655,4.8187,16.588,52.555,3.01E+08
40656,37.624,-5.4784,17.952,1.30E+08
40657,39.968,-3.3088,14.778,1.22E+08
40658,36.118,-5.2135,16.235,1.30E+08
40659,37.674,-3.7777,13.926,1.14E+08
40660,38.883,-5.8613,15.627,1.07E+08
40661,35.308,-7.7858,20.162,1.45E+08
40662,33.928,-10.339,20.312,1.36E+08
40663,32.209,-8.8708,18.769,1.47E+08
40664,33.802,-7.521,18.446,1.48E+08
40665,34.513,-9.4566,18.476,1.31E+08
40666,36.266,-10.193,19.856,1.08E+08
40667,36.139,-7.3749,17.99,1.17E+08
40668,36.851,-9.3105,18.02,1.03E+08
40669,38.904,-8.0226,17.382,9.72E+07
40670,32.817,-18.976,18.804,1.27E+08
40671,34.823,-15.198,19.765,1.15E+08
40672,38.323,-17.507,19.073,1.13E+08
40673,35.812,-19.823,18.736,1.62E+08
40674,35.846,-18.423,16.216,1.29E+08
40675,36.031,-16.811,18.233,1.19E+08
40676,36.155,-20.541,20.501,1.97E+08
40677,32.877,-20.21,21.282,2.08E+08
40678,27.075,-15.117,23.144,1.83E+08
40679,26.392,-19.412,23.707,2.08E+08
40680,26.322,-16.014,24.442,2.05E+08
40681,3.1536,0.73223,63.316,2.37E+08
40682,6.5107,0.36643,59.791,1.67E+08
40683,3.608,-1.9204,62.759,2.00E+08
40684,7.3645,2.0169,63.927,1.51E+08
40685,4.7302,0.68903,61.525,2.05E+08
40686,6.1611,-1.5336,61.474,1.51E+08
40687,-3.0228,2.1051,64.971,2.45E+08
40688,0.59271,-0.99357,63.037,2.73E+08
40689,1.1857,4.3732,63.973,3.08E+08
40690,1.7148,1.6159,61.802,2.78E+08
40691,-1.7646,0.89171,62.184,2.83E+08
40692,-0.70572,2.9022,62.723,3.06E+08
40693,0.88249,-0.27073,60.626,2.71E+08
40694,-0.50929,2.0755,60.467,3.13E+08
40695,-1.7178,-0.32822,63.414,2.64E+08
40696,0.89258,3.7555,61.894,3.06E+08
40697,33.869,-21.15,18.016,1.54E+08
40698,30.934,-21.536,20.562,2.00E+08
40699,30.28,-18.548,17.3,1.07E+08
40700,35.892,-22.301,11.033,1.55E+08
40701,38.251,-22.776,10.373,1.69E+08
40702,37.212,-22.73,15.366,2.05E+08
40703,37.246,-21.33,12.845,1.63E+08
40704,38.82,-21.875,14.148,1.72E+08
40705,45.834,-17.303,2.8578,6.34E+07
40706,50.326,-16.267,5.9099,7.31E+07
40707,46.144,-18.591,5.8842,6.65E+07
40708,45.242,-16.316,4.6789,5.47E+07
40709,48.214,-16.452,6.5105,6.51E+07
40710,46.019,-15.73,6.1372,5.40E+07
40711,50.464,-20.216,11.085,8.48E+07
40712,49.056,-20.995,13.177,8.94E+07
40713,46.335,-21.015,13.553,1.03E+08
40714,46.629,-18.68,12.128,7.72E+07
40715,46.289,-20.552,9.4355,7.98E+07
40716,48.358,-18.413,10.062,7.39E+07
40717,48.412,-18.804,12.84,7.95E+07
40718,51.397,-20.312,12.986,8.62E+07
40719,52.812,-17.545,9.2709,7.99E+07
40720,52.477,-18.595,13.765,7.79E+07
40721,54.384,-17.623,11.357,7.88E+07
40722,50.699,-17.73,9.8716,7.25E+07
40723,50.753,-18.122,12.65,7.69E+07
40724,53.448,-20.259,12.8,8.23E+07
40725,52.46,-16.86,12.038,7.09E+07
40726,54.637,-20.677,7.9949,9.72E+07
40727,-52.004,-4.522,59.807,5.22E+07
40728,-49.311,-6.5338,63.143,3.85E+07
40729,-48.295,-4.6917,61.941,5.07E+07
40730,-49.347,-4.4916,60.026,5.29E+07
40731,-48.765,-4.6682,64.118,5.42E+07
40732,-51.035,-6.8547,62.067,3.70E+07
40733,-49.478,-6.522,60.841,3.17E+07
40734,-44.305,-4.5361,63.313,4.99E+07
40735,-42.886,-6.4156,65.788,3.05E+07
40736,-44.775,-4.5126,65.49,5.30E+07
40737,-40.758,-5.6547,64.425,2.82E+07
40738,-42.234,-4.6423,62.477,5.11E+07
40739,-6.2538,14.844,57.69,2.87E+08
40740,-6.7963,12.79,56.28,2.54E+08
40741,-6.8754,16.798,56.643,3.25E+08
40742,-3.6757,16.988,52.29,3.10E+08
40743,-5.1804,15.062,51.611,3.09E+08
40744,-6.138,12.954,53.781,2.74E+08
40745,-4.3524,14.023,55.507,2.98E+08
40746,-4.7405,17.424,54.29,3.10E+08
40747,-4.0458,15.145,53.841,3.08E+08
40748,-5.1435,16.173,55.65,3.05E+08
40749,-6.7416,2.5431,64.513,1.76E+08
40750,-4.9257,1.3377,63.561,2.17E+08
40751,-5.6452,3.9514,63.542,2.17E+08
40752,-3.8668,3.3482,64.1,2.42E+08
40753,-4.8789,0.11779,64.792,1.99E+08
40754,-6.7215,3.6114,66.63,1.80E+08
40755,-7.2316,0.61506,60.602,2.08E+08
40756,-6.8315,2.9668,59.883,2.32E+08
40757,-5.4833,1.3297,61.726,2.16E+08
40758,-6.2028,3.9434,61.706,2.16E+08
40759,-7.2792,3.6034,64.795,1.73E+08
40760,-8.1479,2.0204,61.047,1.71E+08
40761,11.859,-19.799,34.922,1.25E+08
40762,9.9072,-17.482,33.925,9.93E+07
40763,9.4179,-19.271,34.479,1.08E+08
40764,10.459,-17.488,35.786,1.18E+08
40765,10.758,-20.571,39.861,1.07E+08
40766,9.9695,-19.278,36.341,1.08E+08
40767,9.5852,-18.352,38.686,1.10E+08
40768,-0.90653,-16.36,60.303,3.56E+07
40769,2.0386,-14.35,60.71,6.02E+07
40770,1.3013,-16.388,59.409,3.70E+07
40771,1.6947,-14.813,62.068,5.38E+07
40772,-9.18E-02,-15.168,61.895,4.99E+07
40773,36.828,-5.7799,9.058,6.00E+07
40774,38.473,-5.1818,9.9884,7.07E+07
40775,38.544,-7.6415,9.6194,6.56E+07
40776,41.104,-8.3876,9.1039,4.90E+07
40777,40.592,-6.4273,9.4167,5.88E+07
40778,37.928,-4.9023,7.9193,5.48E+07
40779,39.42,-4.2975,7.5517,6.17E+07
40780,40.039,-3.7695,12.507,9.23E+07
40781,41.248,-5.8531,14.208,8.77E+07
40782,43.891,-5.1462,13.223,7.70E+07
40783,42.158,-5.015,11.935,8.00E+07
40784,7.4083,-8.948,59.71,8.15E+07
40785,6.956,-4.7192,60.429,1.10E+08
40786,5.3907,-6.7912,59.953,1.14E+08
40787,7.1738,2.4956,53.796,2.09E+08
40788,7.0007,3.6011,56.071,1.89E+08
40789,7.1582,2.25E-02,53.76,1.95E+08
40790,5.072,1.2501,58.278,2.10E+08
40791,6.5029,-0.97259,58.228,1.61E+08
40792,6.2053,-0.59679,55.356,1.87E+08
40793,4.9345,2.8432,56.46,2.34E+08
40794,4.2396,-0.63653,57.101,2.09E+08
40795,5.4053,1.2623,54.175,2.31E+08
40796,4.6547,1.0374,56.072,2.26E+08
40797,6.0714,-12.108,60.827,4.93E+07
40798,4.961,-13.786,63.378,2.81E+07
40799,6.5195,-12.046,64.54,2.63E+07
40800,3.9437,-12.857,61.653,5.25E+07
40801,6.6433,-14.487,61.921,2.77E+07
40802,3.5997,-13.32,63.012,5.11E+07
40803,33.933,-7.8957,11.166,8.11E+07
40804,32.43,-10.083,14.729,1.09E+08
40805,34.022,-8.7334,14.406,1.03E+08
40806,33.944,-11.603,11.255,9.09E+07
40807,35.649,-9.7573,11.727,8.22E+07
40808,34.734,-10.669,14.435,9.20E+07
40809,35.643,-12.382,12.962,8.48E+07
40810,32.968,-8.3965,12.96,9.71E+07
40811,34.174,-18.949,10.047,1.15E+08
40812,36.573,-15.178,9.5941,8.67E+07
40813,34.3,-14.804,10.393,9.81E+07
40814,35.528,-17.978,11.86,1.10E+08
40815,35.999,-15.583,12.099,9.41E+07
40816,37.216,-17.287,9.9778,9.24E+07
40817,34.725,-21.139,6.681,1.29E+08
40818,36.583,-21.614,8.623,1.25E+08
40819,35.578,-20.168,11.096,1.23E+08
40820,37.266,-19.477,9.2136,1.05E+08
40821,-4.0316,7.2238,46.845,4.26E+08
40822,-5.3586,8.4666,49.437,3.35E+08
40823,-3.7177,12.024,48.484,3.67E+08
40824,-2.1573,7.5902,47.712,4.13E+08
40825,-4.6753,9.9157,50.654,3.35E+08
40826,-2.5002,9.2851,49.864,3.90E+08
40827,-3.7743,7.249,48.862,4.07E+08
40828,-6.7639,1.0467,57.808,2.67E+08
40829,-6.6548,-3.6056,57.881,2.30E+08
40830,-5.4157,-0.5903,59.65,2.48E+08
40831,-5.3282,-1.7036,57.046,2.73E+08
40832,-4.8312,-2.8758,59.005,2.29E+08
40833,-8.0804,0.10033,58.972,2.09E+08
40834,4.7718,6.5412,47.33,3.58E+08
40835,6.9273,6.4785,49.626,2.74E+08
40836,4.5072,10.323,50.385,3.34E+08
40837,6.6868,7.1082,47.224,3.38E+08
40838,5.0485,7.9144,50.009,3.27E+08
40839,5.3396,4.1265,48.752,3.18E+08
40840,4.5364,2.2029,44.816,3.61E+08
40841,0.99951,2.889,46.131,3.77E+08
40842,5.0991,4.7562,46.35,3.79E+08
40843,3.4607,5.5624,49.134,3.67E+08
40844,1.1988,4.906,47.017,4.13E+08
40845,3.368,1.4908,46.668,3.22E+08
40846,3.5711,2.8932,49.13,3.41E+08
40847,1.5423,4.3709,49.404,3.83E+08
40848,1.3181,2.3324,47.782,3.60E+08
40849,7.2615,-5.0416,48.326,2.00E+08
40850,7.6344,-6.9218,49.304,1.83E+08
40851,7.284,-3.4318,51.157,1.93E+08
40852,6.7588,-7.6866,53.111,1.47E+08
40853,6.3311,-4.0511,52.753,1.80E+08
40854,4.7287,-6.1915,52.137,1.70E+08
40855,5.4105,-6.5834,49.156,1.54E+08
40856,5.4282,-8.6257,51.25,1.35E+08
40857,7.56,-7.9643,51.118,1.64E+08
40858,4.9805,-4.8913,50.827,1.85E+08
40859,4.9301,-12.079,59.297,7.49E+07
40860,6.7357,-10.361,56.678,1.02E+08
40861,5.247,-12.737,56.817,7.50E+07
40862,5.0403,-9.1734,58.714,1.09E+08
40863,4.1846,-10.77,57.63,9.86E+07
40864,7.6297,-13.709,59.565,6.62E+07
40865,-2.7846,-17.881,56.778,4.12E+07
40866,-0.23401,-19.002,53.525,6.22E+07
40867,-0.57673,-17.909,55.883,4.67E+07
40868,-4.2575,-17.251,52.707,7.95E+07
40869,-2.4826,-16.042,55.081,6.57E+07
40870,-1.5203,-19.2,51.475,7.53E+07
40871,-1.2617,-17.019,52.883,6.74E+07
40872,-0.88023,-16.876,58.416,4.01E+07
40873,-2.7861,-15.009,57.614,6.92E+07
40874,-4.3331,-15.331,59.693,4.14E+07
40875,-2.2733,-15.656,60.902,4.08E+07
40876,-8.2297,-11.548,52.874,1.58E+08
40877,-7.8959,-12.452,56.093,1.19E+08
40878,-7.0432,-14.101,52.577,1.23E+08
40879,-5.2683,-12.891,54.951,1.17E+08
40880,-6.2831,-11.946,53.096,1.38E+08
40881,9.03,-12.445,34.444,1.02E+08
40882,9.4767,-8.759,36.587,1.79E+08
40883,7.1683,-8.6823,34.581,1.31E+08
40884,11.275,-9.5379,35.025,2.25E+08
40885,7.6896,-10.862,35.677,1.13E+08
40886,8.0176,-16.96,35.344,8.15E+07
40887,7.1665,-13.588,36.022,8.06E+07
40888,6.2326,-15.893,35.493,6.46E+07
40889,7.6333,-16.035,37.689,7.42E+07
40890,5.2375,-19.898,51.526,6.48E+07
40891,6.4312,-18.823,47.773,6.86E+07
40892,3.1849,-19.953,50.98,7.08E+07
40893,3.1702,-21.27,47.073,1.01E+08
40894,1.8986,-20.15,48.93,8.31E+07
40895,4.4814,-18.889,49.487,6.43E+07
40896,4.3704,-19.235,47.101,6.63E+07
40897,4.0656,-19.036,53.351,5.72E+07
40898,4.7771,-16.562,54.531,5.62E+07
40899,3.7229,-17.943,55.709,4.44E+07
40900,5.3621,-17.972,51.858,6.00E+07
40901,-50.897,-4.1173,57.746,5.62E+07
40902,-52.295,-4.2727,55.781,5.42E+07
40903,7.0919,-7.7222,37.068,1.60E+08
40904,9.5601,-6.4557,40.461,2.59E+08
40905,7.4444,-5.7808,39.461,2.15E+08
40906,11.198,-8.5778,37.513,2.75E+08
40907,7.6133,-9.9018,38.165,1.48E+08
40908,9.1313,-8.846,40.915,2.09E+08
40909,6.9845,-9.5953,40.671,1.51E+08
40910,7.6328,-7.5693,41.061,1.88E+08
40911,6.2574,-7.8713,39.204,1.55E+08
40912,10.232,-5.779,38.413,3.11E+08
40913,0.63937,-6.1264,62.188,1.99E+08
40914,-1.7673,-8.2966,62.154,1.46E+08
40915,1.5169,-10.717,61.009,1.17E+08
40916,1.6272,-7.8116,60.426,1.57E+08
40917,-1.152,-8.3948,60.212,1.62E+08
40918,0.77146,-9.4085,59.342,1.39E+08
40919,-1.1334,-6.5266,60.689,1.93E+08
40920,37.859,-21.917,1.8675,1.03E+08
40921,35.623,-21.014,1.3188,1.32E+08
40922,37.084,-21.614,6.0207,1.28E+08
40923,37.713,-19.449,4.3689,1.07E+08
40924,37.74,-21.297,3.7701,1.11E+08
40925,34.712,-18.205,3.7225,1.29E+08
40926,42.163,-20.162,0.59972,7.81E+07
40927,42.017,-17.694,3.1012,6.90E+07
40928,42.044,-19.542,2.5024,7.11E+07
40929,43.243,-16.641,3.3643,6.25E+07
40930,42.81,-15.999,1.4354,7.51E+07
40931,7.322,5.1693,53.323,2.18E+08
40932,7.4795,1.5907,51.012,2.26E+08
40933,7.2546,4.6934,48.646,3.00E+08
40934,5.6162,5.4997,51.431,2.83E+08
40935,5.7266,2.8304,51.427,2.61E+08
40936,7.9628,-14.316,46.406,1.25E+08
40937,8.8054,-19.084,44.666,8.99E+07
40938,6.5558,-16.897,48.105,8.23E+07
40939,6.4449,-17.243,45.72,7.19E+07
40940,7.6327,-16.865,43.49,8.55E+07
40941,8.6876,-15.803,44.761,1.28E+08
40942,-47.152,-6.3291,62.997,3.38E+07
40943,-45.732,-8.2086,65.473,5.35E+07
40944,-47.622,-6.3056,65.174,3.88E+07
40945,-49.892,-8.4922,63.122,5.74E+07
40946,-48.335,-8.1595,61.896,4.76E+07
40947,-47.188,-4.287,59.88,5.39E+07
40948,-46.606,-4.4635,63.972,5.37E+07
40949,-47.319,-6.3174,60.694,2.69E+07
40950,-44.065,-4.5932,60.959,5.20E+07
40951,-45.43,-5.6234,60.054,2.78E+07
40952,-45.186,-6.343,66.448,3.58E+07
40953,-44.244,-8.1769,68.916,5.36E+07
40954,-41.169,-7.4851,65.383,3.71E+07
40955,3.2991,-22.554,35.69,1.07E+08
40956,6.1999,-21.721,35.681,1.03E+08
40957,3.0955,-24.344,36.688,1.50E+08
40958,-8.2264,0.833,50.576,4.18E+08
40959,-6.1142,3.9951,48.506,4.36E+08
40960,-7.5782,4.9367,53.475,3.21E+08
40961,-7.0285,3.2493,54.128,3.56E+08
40962,-7.4412,5.2378,51.098,3.53E+08
40963,-6.7523,1.8609,49.434,4.05E+08
40964,-5.9738,4.2635,52.379,3.88E+08
40965,-5.8314,2.1807,51.77,4.01E+08
40966,-5.8569,4.0203,50.524,4.18E+08
40967,-7.2855,-0.4063,48.843,4.58E+08
40968,-8.7973,-2.0919,47.306,3.71E+08
40969,-7.6225,-3.1863,49.117,3.62E+08
40970,-5.783,-2.2425,50.458,3.99E+08
40971,-6.3646,-8.65E-02,51.179,4.35E+08
40972,-8.4098,-3.9939,50.683,3.71E+08
40973,-10.591,-1.9823,49.666,6.21E+08
40974,35.964,-21.31,-3.878,1.36E+08
40975,35.16,-19.357,-7.1807,1.28E+08
40976,35.397,-24.456,-4.942,1.32E+08
40977,37.26,-20.876,-5.2256,1.42E+08
40978,36.478,-22.956,-6.705,1.43E+08
40979,34.871,-23.26,-7.9731,1.30E+08
40980,36.596,-20.069,-6.897,1.37E+08
40981,6.6539,-1.9427,44.245,2.79E+08
40982,7.7918,-5.9822,46.291,2.09E+08
40983,7.4414,-2.4922,48.145,2.22E+08
40984,8.5694,-4.6073,43.581,2.62E+08
40985,6.4537,-3.9323,42.581,2.08E+08
40986,5.4854,-2.6549,46.098,2.37E+08
40987,8.1406,-6.9975,44.035,2.10E+08
40988,6.6421,-5.7208,44.181,1.86E+08
40989,5.5679,-5.6439,46.143,1.82E+08
40990,5.1379,-3.9517,47.815,2.14E+08
40991,5.3302,-4.182,44.388,1.96E+08
40992,-2.6377,-22.032,42.683,1.48E+08
40993,-0.70681,-21.858,44.929,1.30E+08
40994,-1.9784,-20.739,46.786,1.11E+08
40995,-4.5509,-19.851,44.864,1.19E+08
40996,-5.0978,-21.834,43.74,1.31E+08
40997,-2.2312,-19.607,44.16,1.11E+08
40998,38.256,-21.792,-0.8925,1.12E+08
40999,39.552,-21.358,-2.2401,1.26E+08
41000,40.373,-22.075,1.5589,9.44E+07
41001,40.715,-23.254,-1.9773,9.29E+07
41002,41.994,-23.589,-1.3287,8.25E+07
41003,37.316,-20.455,-2.7889,1.40E+08
41004,38.137,-21.172,1.0102,1.17E+08
41005,-4.4194,2.5958,44.189,3.64E+08
41006,-2.8601,3.2394,45.826,4.02E+08
41007,-2.6609,5.2564,46.713,4.42E+08
41008,-5.1732,2.7558,46.773,4.27E+08
41009,-4.2778,4.9152,47.863,4.37E+08
41010,-30.193,-7.9535,53.438,7.15E+07
41011,-32.288,-5.7239,56.553,3.73E+07
41012,-33.454,-7.8133,53.563,5.84E+07
41013,-33.093,-8.072,55.87,6.14E+07
41014,-29.187,-8.7546,56.797,9.13E+07
41015,-30.119,-5.5895,54.54,4.59E+07
41016,-7.57E-02,-21.244,38.209,1.17E+08
41017,5.29E-02,-21.899,42.747,1.41E+08
41018,-4.3381,-21.874,41.557,1.40E+08
41019,-2.419,-20.327,38.952,1.24E+08
41020,-1.4715,-19.647,41.978,1.23E+08
41021,-0.15766,-20.028,40.427,1.20E+08
41022,-0.27928,-23.034,39.207,1.67E+08
41023,3.5685,-9.7954,35.255,1.14E+08
41024,5.1359,-5.704,37.455,1.54E+08
41025,5.3048,-9.825,36.159,1.13E+08
41026,2.4395,-7.4818,35.528,1.33E+08
41027,3.9489,-7.7945,37.198,1.20E+08
41028,5.6886,-1.773,41.512,2.64E+08
41029,4.7203,-0.49556,45.029,2.96E+08
41030,4.5651,-2.0226,43.319,2.51E+08
41031,7.7194,1.7591,43.883,3.73E+08
41032,-5.6744,-1.1512,40.375,2.31E+08
41033,-2.4395,-1.8623,41.191,1.89E+08
41034,-2.7443,0.94521,44.169,3.23E+08
41035,-5.0575,0.46161,45.117,3.54E+08
41036,-6.5693,-1.224,43.58,2.55E+08
41037,-4.8345,-2.8927,42.248,1.93E+08
41038,-3.8666,-1.3184,44.173,2.46E+08
41039,-3.9966,-0.83246,40.581,2.13E+08
41040,-6.9631,-16.385,36.76,1.38E+08
41041,-8.7519,-15.967,36.296,1.78E+08
41042,-8.6494,-15.457,40.073,1.65E+08
41043,-8.8264,-17.806,40.198,1.39E+08
41044,-7.5608,-19.059,40.484,1.18E+08
41045,-5.9711,-15.409,38.991,1.29E+08
41046,-5.6418,-17.512,37.879,1.05E+08
41047,-7.9605,-13.821,39.038,1.87E+08
41048,-13.399,-3.2492,41.195,4.05E+08
41049,-12.02,-6.1034,43.089,3.17E+08
41050,-14.374,-4.4412,45.205,4.03E+08
41051,-11.001,-3.1328,44.205,3.17E+08
41052,-14.531,-4.4113,42.451,3.86E+08
41053,-11.839,-3.7259,42.018,3.47E+08
41054,-13.978,-6.355,43.838,3.58E+08
41055,-13.5,-2.7857,45.435,4.99E+08
41056,4.6275,-19.583,35.908,7.56E+07
41057,-0.61673,-19.499,36.66,8.18E+07
41058,2.8425,-18.516,36.057,7.12E+07
41059,1.6447,-19.2,38.135,7.88E+07
41060,1.523,-22.206,36.915,1.28E+08
41061,-4.0972,-14.038,35.336,1.41E+08
41062,-0.11907,-11.847,35.477,1.19E+08
41063,-3.3832,-9.7237,36.386,1.53E+08
41064,-3.1052,-13.062,37.568,1.34E+08
41065,-0.44634,-12.805,37.526,1.10E+08
41066,-1.248,-9.5332,35.751,1.39E+08
41067,-1.9264,-10.906,38.144,1.26E+08
41068,-38.846,-6.3113,57.591,3.03E+07
41069,-37.435,-8.4876,57.934,6.22E+07
41070,-39.131,-7.6777,61.816,4.11E+07
41071,-40.607,-6.6653,59.868,2.43E+07
41072,-41.972,-7.6955,58.962,3.90E+07
41073,-44.636,-6.1398,52.108,2.85E+07
41074,-44.961,-3.6761,54.63,7.73E+07
41075,-47.661,-5.9487,52.092,2.97E+07
41076,-47.457,-4.0074,55.679,6.39E+07
41077,-48.855,-4.1628,53.714,6.22E+07
41078,-43.995,-4.0405,52.408,6.88E+07
41079,-45.894,-3.584,51.088,7.77E+07
41080,-46.44,-6.4332,54.051,2.53E+07
41081,-45.699,-5.3438,55.853,3.51E+07
41082,-40.86,-3.7078,55.718,7.91E+07
41083,-37.562,-3.6764,53.288,8.22E+07
41084,-36.256,-3.8195,56.595,7.87E+07
41085,-37.422,-5.9089,53.606,3.45E+07
41086,-37.061,-6.1676,55.913,3.25E+07
41087,-40.233,-4.3453,57.846,6.40E+07
41088,-39.894,-4.0723,53.496,7.07E+07
41089,-40.846,-8.0845,48.818,5.84E+07
41090,-43.634,-8.4207,48.946,6.16E+07
41091,-39.484,-8.0892,51.233,5.66E+07
41092,-45.622,-8.1608,50.806,5.35E+07
41093,-41.957,-6.2525,51.123,2.92E+07
41094,-43.856,-5.796,49.803,3.01E+07
41095,-44.401,-8.6452,52.766,6.41E+07
41096,-44.337,-9.412,50.758,7.96E+07
41097,-45.743,-3.7556,56.916,7.13E+07
41098,-42.62,-4.0619,57.995,6.97E+07
41099,-42.282,-3.7888,53.644,7.62E+07
41100,-43.986,-5.0921,57.089,4.20E+07
41101,-33.11,-7.9668,51.517,6.94E+07
41102,-29.391,-8.2016,49.157,1.07E+08
41103,-26.857,-7.8439,51.101,9.52E+07
41104,-29.776,-5.743,52.494,4.70E+07
41105,-31.577,-6.2821,50.279,4.92E+07
41106,-37.873,-5.5894,48.91,3.66E+07
41107,-36.511,-5.5941,51.325,3.93E+07
41108,-38.984,-3.7574,51.215,7.95E+07
41109,-34.978,-3.9094,50.087,7.75E+07
41110,-36.512,-4.2843,48.788,6.50E+07
41111,-34.844,-5.9959,56.939,3.42E+07
41112,-22.081,-8.1905,45.384,2.48E+08
41113,-25.054,-8.1463,43.986,2.02E+08
41114,-24.037,-5.8276,45.018,1.91E+08
41115,-26.632,-8.1037,46.682,1.59E+08
41116,-24.097,-7.7461,48.627,1.45E+08
41117,-23.286,-6.3393,46.655,1.94E+08
41118,-19.718,-6.2963,43.95,3.11E+08
41119,-18.795,-3.9703,40.308,3.21E+08
41120,-21.674,-3.9334,43.584,2.72E+08
41121,-21.537,-3.9564,40.887,2.75E+08
41122,-17.593,-4.7446,45.101,3.71E+08
41123,-20.923,-4.4451,45.221,2.72E+08
41124,-17.751,-4.7148,42.348,3.41E+08
41125,-22.803,-8.4256,42.927,2.70E+08
41126,-21.786,-6.1069,43.959,2.48E+08
41127,-17.705,-6.9181,45.476,3.54E+08
41128,-21.036,-6.6186,45.596,2.42E+08
41129,-17.863,-6.8883,42.723,3.39E+08
41130,-17.31,-8.832,44.109,3.18E+08
41131,34.655,-7.838,-11.961,1.32E+08
41132,36.315,-6.3719,-10.08,1.47E+08
41133,36.643,-10.11,-10.954,1.69E+08
41134,36.687,-9.0708,-7.6486,1.51E+08
41135,33.064,-13.582,-14.532,1.30E+08
41136,32.719,-16.061,-14.974,1.31E+08
41137,34.296,-16.028,-10.052,1.26E+08
41138,35.131,-15.135,-13.3,1.44E+08
41139,35.855,-13.482,-12.098,1.60E+08
41140,-39.661,-5.7733,44.942,3.48E+07
41141,-42.138,-3.5447,44.261,8.14E+07
41142,-37.48,-4.1646,43.018,6.75E+07
41143,-41.313,-5.9891,42.994,3.11E+07
41144,-40.739,-3.7543,41.092,8.12E+07
41145,-38.139,-6.1292,43.276,4.31E+07
41146,-38.3,-4.4682,44.82,5.98E+07
41147,-38.402,-4.4286,40.81,6.80E+07
41148,-41.882,-8.1534,46.941,6.22E+07
41149,-37.733,-7.8219,49.227,5.77E+07
41150,-40.746,-8.0331,44.864,6.42E+07
41151,-40.205,-5.9853,49.117,3.06E+07
41152,-37.572,-8.1731,45.146,8.18E+07
41153,-37.733,-6.5121,46.69,4.08E+07
41154,-44.359,-5.9248,46.259,2.57E+07
41155,-47.009,-3.1535,44.85,8.57E+07
41156,-43.222,-5.8045,44.182,2.62E+07
41157,-45.764,-5.9101,43.507,2.43E+07
41158,-44.581,-3.3001,47.115,8.55E+07
41159,-43.534,-8.3692,44.992,6.69E+07
41160,-46.659,-8.2296,48.929,5.72E+07
41161,-46.076,-8.4749,44.317,7.07E+07
41162,-44.893,-5.8649,47.925,2.61E+07
41163,-45.374,-9.4808,48.881,8.41E+07
41164,-48.726,-5.7036,42.908,2.54E+07
41165,-47.543,-3.0936,46.517,8.59E+07
41166,34.231,-10.29,-17.127,1.38E+08
41167,36.648,-5.9982,-14.969,1.67E+08
41168,36.255,-9.5057,-19.092,1.52E+08
41169,35.034,-7.9188,-15.699,1.41E+08
41170,34.778,-8.6686,-18.747,1.45E+08
41171,37.281,-5.5932,-18.085,1.87E+08
41172,31.604,-14.57,-17.449,1.26E+08
41173,30.275,-11.396,-18.972,1.25E+08
41174,33.972,-11.306,-18.973,1.27E+08
41175,34.016,-13.644,-15.775,1.40E+08
41176,32.752,-9.7191,-15.58,1.23E+08
41177,31.1,-9.3551,-17.82,1.20E+08
41178,32.195,-12.383,-19.46,1.20E+08
41179,32.496,-10.469,-18.628,1.24E+08
41180,-14.493,-10.392,37.033,3.64E+08
41181,-11.544,-9.8435,39.991,3.31E+08
41182,-9.9068,-11.098,38.654,2.94E+08
41183,-12.591,-8.7232,37.498,3.49E+08
41184,-10.386,-9.2568,38.023,3.07E+08
41185,-11.956,-9.8261,35.747,3.23E+08
41186,-13.826,-11.271,38.039,3.93E+08
41187,-33.632,-4.2997,41.444,8.43E+07
41188,-33.002,-4.1074,44.024,7.89E+07
41189,-35.391,-6.5644,43.222,6.67E+07
41190,-35.552,-4.9034,44.766,5.73E+07
41191,-35.654,-4.8638,40.757,7.05E+07
41192,-32.982,-6.5429,42.92,8.87E+07
41193,-34.864,-6.7913,41.495,8.30E+07
41194,-36.01,-8.0853,53.949,5.86E+07
41195,-38.844,-5.9899,51.532,3.30E+07
41196,-34.838,-6.1419,50.405,4.10E+07
41197,-36.371,-6.5168,49.105,3.98E+07
41198,36.301,-5.9403,-26.676,1.69E+08
41199,34.318,-6.8675,-26.361,1.38E+08
41200,32.918,-4.6568,-25.007,1.54E+08
41201,35.784,-7.9347,-22.549,1.51E+08
41202,33.881,-4.7685,-22.707,1.50E+08
41203,35.596,-7.8079,-24.775,1.34E+08
41204,33.485,-6.7384,-24.175,1.42E+08
41205,34.308,-7.0977,-22.204,1.43E+08
41206,36.337,-3.7608,-25.659,1.78E+08
41207,36.896,-4.0761,-23.83,1.85E+08
41208,35.169,-5.4271,-13.423,1.42E+08
41209,36.829,-3.9609,-11.542,1.66E+08
41210,37.416,-3.1014,-15.808,1.93E+08
41211,37.446,-2.7805,-11.11,1.83E+08
41212,33.68,-16.948,-25.65,1.03E+08
41213,32.474,-17.148,-20.387,1.14E+08
41214,31.453,-17.035,-25.146,1.07E+08
41215,35.271,-17.483,-25.19,1.00E+08
41216,30.953,-17.992,-22.572,1.14E+08
41217,32.712,-15.663,-24.082,1.10E+08
41218,33.065,-14.961,-22.398,1.15E+08
41219,35.915,-17.49,-22.589,1.18E+08
41220,31.444,-16.737,-27.913,9.72E+07
41221,35.262,-17.184,-27.958,9.35E+07
41222,32.703,-15.364,-26.849,1.01E+08
41223,32.753,-15.329,-29.271,1.01E+08
41224,-26.822,-6.5086,37.492,2.03E+08
41225,-25.583,-8.6191,39.237,2.45E+08
41226,-28.156,-8.3854,37.795,2.18E+08
41227,-25.856,-9.0501,33.859,2.52E+08
41228,-23.532,-9.675,35.663,3.09E+08
41229,-27.172,-8.8691,35.653,2.51E+08
41230,-24.429,-6.3234,37.572,2.38E+08
41231,-23.319,-7.771,35.47,2.69E+08
41232,-20.726,-3.8039,37.621,2.81E+08
41233,-15.807,-3.4002,37.824,3.72E+08
41234,-16.648,-5.1781,34.793,2.94E+08
41235,-17.377,-6.8033,36.761,3.38E+08
41236,-19.616,-5.2515,35.519,3.03E+08
41237,-16.94,-4.5623,39.081,3.52E+08
41238,-15.474,-5.134,37.225,3.28E+08
41239,-27.015,-6.2709,39.785,1.81E+08
41240,-30.419,-4.4399,36.272,1.47E+08
41241,-29.588,-6.0373,38.344,1.55E+08
41242,-28.604,-6.5209,36.202,1.86E+08
41243,-30.392,-4.0799,38.982,1.28E+08
41244,-25.861,-3.9752,38.12,1.94E+08
41245,-24.759,-6.0627,42.562,2.00E+08
41246,-28.35,-8.1478,40.089,1.97E+08
41247,-24.623,-6.0857,39.865,2.19E+08
41248,-27.355,-8.3388,44.226,1.77E+08
41249,-28.504,-8.4337,42.203,1.88E+08
41250,-23.606,-3.767,40.897,2.15E+08
41251,-22.992,-4.2557,45.231,2.20E+08
41252,-41.824,-6.0141,41.014,3.35E+07
41253,-43.265,-7.4249,40.088,4.69E+07
41254,-44.939,-8.3546,42.24,7.18E+07
41255,36.564,-11.275,-43.43,3.68E+07
41256,34.728,-9.5121,-43.071,5.42E+07
41257,37.466,-2.2765,-42.888,9.83E+07
41258,37.543,-2.0092,-37.353,1.41E+08
41259,34.532,-2.3446,-39.634,1.38E+08
41260,34.401,-11.155,-44.041,4.84E+07
41261,34.34,-13.808,-44.572,3.65E+07
41262,34.267,-13.019,-47.031,3.10E+07
41263,-38.504,-6.1602,35.402,7.69E+07
41264,-40.086,-6.351,37.564,5.34E+07
41265,-41.528,-7.7618,36.638,6.86E+07
41266,-37.923,-8.2126,34.372,1.11E+08
41267,-37.749,-7.0253,37.282,8.08E+07
41268,-36.959,-8.9528,38.021,1.27E+08
41269,-35.335,-4.0585,34.646,1.22E+08
41270,-36.901,-3.5203,32.567,1.40E+08
41271,-39.668,-3.5884,36.95,1.01E+08
41272,-41.11,-4.9992,36.025,6.55E+07
41273,-37.505,-5.45,33.759,1.01E+08
41274,-37.331,-4.2627,36.669,9.42E+07
41275,27.204,-6.5705,-52.741,9.12E+07
41276,27.746,-9.5896,-49.955,7.24E+07
41277,25.611,-7.7554,-51.984,9.42E+07
41278,25.57,-9.9401,-51.353,7.68E+07
41279,27.092,-7.9026,-50.258,9.02E+07
41280,27.705,-10.347,-51.838,6.53E+07
41281,22.628,-13.332,-53.398,6.16E+07
41282,24.977,-12.757,-54.514,5.14E+07
41283,23.357,-9.0531,-53.784,8.42E+07
41284,21.393,-12.425,-54.804,7.02E+07
41285,23.316,-11.238,-53.154,6.84E+07
41286,21.551,-9.7943,-54.368,8.52E+07
41287,35.046,-7.4597,-28.877,1.43E+08
41288,36.325,-8.4002,-27.291,1.40E+08
41289,37.065,-4.353,-28.174,1.85E+08
41290,37.341,-4.5624,-29.947,1.74E+08
41291,31.95,-6.8155,-29.731,1.31E+08
41292,30.55,-4.6048,-28.377,1.48E+08
41293,29.321,-6.7166,-30.289,1.39E+08
41294,28.503,-5.1268,-29.66,1.45E+08
41295,31.932,-5.4457,-31.94,1.47E+08
41296,31.663,-6.1762,-27.208,1.32E+08
41297,32.046,-9.9962,-28.259,1.17E+08
41298,30.435,-8.288,-29.12,1.25E+08
41299,34.341,-9.3274,-26.976,1.13E+08
41300,32.23,-8.2578,-26.375,1.24E+08
41301,33.671,-16.123,-16.217,1.38E+08
41302,29.737,-17.893,-20.076,1.28E+08
41303,31.85,-14.862,-19.902,1.19E+08
41304,27.225,-16.936,-26.476,1.13E+08
41305,26.889,-17.004,-29.469,9.82E+07
41306,30.123,-14.215,-27.683,1.07E+08
41307,28.089,-14.507,-28.625,1.06E+08
41308,28.716,-17.78,-24.835,1.12E+08
41309,28.609,-14.719,-26.026,1.12E+08
41310,30.476,-15.451,-26.344,1.06E+08
41311,28.282,-15.845,-30.003,9.27E+07
41312,30.527,-15.417,-28.766,1.02E+08
41313,29.426,-8.6609,-19.784,1.20E+08
41314,28.301,-11.658,-22.79,1.23E+08
41315,30.521,-11.689,-21.425,1.20E+08
41316,29.999,-9.4154,-22.563,1.22E+08
41317,27.172,-9.5653,-23.151,1.25E+08
41318,30.822,-9.7747,-20.592,1.24E+08
41319,34.145,-16.538,-36.78,6.21E+07
41320,37.101,-17.469,-38.195,4.00E+07
41321,-32.438,-6.7294,32.65,1.66E+08
41322,-31.753,-6.3168,36.575,1.44E+08
41323,-34.15,-4.1811,32.424,1.47E+08
41324,-30.769,-6.8004,34.433,1.79E+08
41325,-32.558,-4.3595,37.213,1.19E+08
41326,-34.754,-6.1109,33.616,1.27E+08
41327,-31.114,-5.106,32.727,1.65E+08
41328,-34.58,-4.9236,36.526,1.09E+08
41329,-29.307,-8.9915,30.785,2.22E+08
41330,-34.004,-6.1911,30.571,1.63E+08
41331,-31.202,-9.5327,28.371,2.06E+08
41332,-30.623,-8.8104,32.579,2.15E+08
41333,-33.479,-8.5671,29.153,1.86E+08
41334,-34.608,-8.1209,31.763,1.59E+08
41335,-30.968,-7.116,30.873,1.89E+08
41336,-30.98,-7.2728,28.277,1.87E+08
41337,-29.939,-8.3978,36.505,2.00E+08
41338,-31.727,-5.9568,39.285,1.20E+08
41339,-33.749,-6.5209,38.598,1.12E+08
41340,-31.077,-8.2,40.761,1.57E+08
41341,-32.959,-8.4485,39.336,1.54E+08
41342,-23.999,-9.8684,32.579,3.00E+08
41343,-25.648,-8.3173,28.291,2.20E+08
41344,-28.217,-9.7847,28.36,2.35E+08
41345,-27.639,-9.0625,32.568,2.36E+08
41346,-26.745,-6.5054,29.738,2.20E+08
41347,-25.108,-6.3178,31.275,2.32E+08
41348,-24.174,-7.7801,29.699,2.31E+08
41349,-27.984,-7.368,30.863,2.17E+08
41350,-23.786,-7.9644,32.385,2.64E+08
41351,-27.995,-7.5249,28.266,2.18E+08
41352,-19.222,-10.141,35.431,3.63E+08
41353,-21.462,-8.5892,34.19,3.14E+08
41354,13.309,19.933,-55.808,8.80E+07
41355,14.196,23.991,-53.287,5.01E+07
41356,9.2835,26.871,-48.884,6.30E+07
41357,7.402,29.291,-46.881,3.81E+07
41358,32.093,-8.83,-46.079,6.46E+07
41359,29.74,-9.3687,-48.271,6.71E+07
41360,30.706,-6.2301,-47.252,9.27E+07
41361,29.526,-7.9485,-46.283,8.57E+07
41362,29.086,-7.6817,-48.575,8.49E+07
41363,31.958,-10.695,-49.069,4.84E+07
41364,29.035,-6.0773,-27.765,1.38E+08
41365,31.227,-4.0772,-23.554,1.43E+08
41366,28.217,-4.4875,-27.137,1.44E+08
41367,30.83,-6.0471,-25.021,1.36E+08
41368,28.003,-6.197,-25.609,1.32E+08
41369,29.352,-10.275,-37.844,7.86E+07
41370,31.963,-9.204,-40.726,6.41E+07
41371,29.485,-8.3027,-38.31,8.88E+07
41372,30.488,-10.28,-39.403,6.73E+07
41373,25.381,-16.425,-46.016,5.48E+07
41374,30.131,-15.432,-45.059,4.65E+07
41375,27.839,-13.318,-46.72,6.01E+07
41376,28.716,-13.855,-43.205,6.07E+07
41377,26.099,-14.852,-45.871,6.10E+07
41378,26.414,-13.802,-43.672,7.05E+07
41379,22.537,-16.022,-49.005,5.92E+07
41380,24.479,-14.785,-52.467,5.04E+07
41381,20.896,-14.453,-52.758,6.91E+07
41382,22.819,-13.265,-51.107,6.90E+07
41383,21.56,-13.963,-48.714,7.20E+07
41384,23.255,-14.449,-48.86,6.37E+07
41385,20.31,-13.742,-50.593,7.70E+07
41386,23.217,-3.457,-43.094,1.88E+08
41387,26.161,-3.4967,-39.227,1.74E+08
41388,27.655,-3.9685,-43.751,1.45E+08
41389,26.564,-5.6671,-40.162,1.41E+08
41390,26.475,-5.6869,-42.782,1.38E+08
41391,24.574,-5.5805,-39.443,1.53E+08
41392,23.818,-5.3535,-41.876,1.53E+08
41393,25.12,-4.1532,-43.296,1.63E+08
41394,22.472,-14.796,-30.52,1.09E+08
41395,20.958,-10.02,-28.597,1.30E+08
41396,23.672,-12.299,-29.675,1.15E+08
41397,18.841,-13.426,-30.461,1.23E+08
41398,19.205,-10.271,-30.062,1.28E+08
41399,21.503,-12.709,-32.173,1.14E+08
41400,19.102,-11.349,-32.382,1.21E+08
41401,22.008,-10.434,-30.433,1.27E+08
41402,24.897,-17.117,-28.536,1.08E+08
41403,26.724,-17.893,-23.902,1.28E+08
41404,26.617,-14.831,-25.094,1.23E+08
41405,-26.271,-7.7169,23.883,1.86E+08
41406,-27.543,-8.8585,25.877,2.06E+08
41407,-26.071,-5.5792,27.255,1.95E+08
41408,-23.5,-6.8538,27.215,2.08E+08
41409,-27.321,-6.5986,25.782,1.94E+08
41410,24.177,-3.9981,-53.538,1.41E+08
41411,25.182,-5.6164,-52.882,1.11E+08
41412,27.855,-4.1842,-55.79,7.44E+07
41413,26.664,-5.7636,-51.156,1.06E+08
41414,20.992,-2.7096,-55.625,1.87E+08
41415,22.584,-5.1831,-52.781,1.45E+08
41416,20.789,-3.3944,-51.475,1.94E+08
41417,19.367,-3.5416,-53.741,1.82E+08
41418,20.777,-5.9242,-53.364,1.43E+08
41419,23.884,-16.743,-34.937,8.49E+07
41420,22.056,-17.545,-33.091,9.63E+07
41421,25.761,-14.688,-30.685,1.01E+08
41422,23.592,-15.097,-33.184,1.00E+08
41423,25.954,-16.025,-32.063,8.91E+07
41424,21.38,-17.103,-36.499,8.81E+07
41425,21.966,-16.074,-40.301,7.84E+07
41426,25.275,-13.918,-38.131,8.83E+07
41427,22.916,-14.656,-36.591,9.30E+07
41428,20.247,-15.669,-38.449,8.77E+07
41429,22.251,-14.323,-39.3,9.09E+07
41430,24.109,-13.87,-40.158,8.67E+07
41431,21.834,-16.266,-44.458,6.67E+07
41432,20.542,-16.135,-46.126,6.77E+07
41433,21.966,-14.624,-46.368,7.35E+07
41434,23.661,-15.111,-46.514,6.49E+07
41435,-35.191,-6.0188,28.928,1.60E+08
41436,-36.32,-5.5726,31.537,1.28E+08
41437,-34.957,-3.9527,27.414,1.81E+08
41438,11.913,11.44,-53.298,2.15E+08
41439,12.386,14.976,-55.975,1.24E+08
41440,12.461,10.723,-55.172,2.04E+08
41441,14.796,11.504,-58.153,1.36E+08
41442,23.852,-6.3205,-28.053,1.35E+08
41443,19.78,-7.8832,-29.149,1.33E+08
41444,22.583,-8.0456,-29.52,1.33E+08
41445,23.638,-8.03,-26.525,1.30E+08
41446,18.426,-16.175,-33.032,1.09E+08
41447,21.088,-15.458,-34.745,1.02E+08
41448,18.419,-16.471,-36.604,9.65E+07
41449,17.14,-16.781,-35.255,1.00E+08
41450,15.327,-16.057,-49.631,7.77E+07
41451,15.615,-13.833,-53.398,9.61E+07
41452,14.157,-13.758,-50.682,1.01E+08
41453,17.536,-14.616,-52.996,8.02E+07
41454,16.95,-13.906,-50.831,8.74E+07
41455,13.546,-15.734,-50.153,8.21E+07
41456,13.189,-16.672,-43.268,7.85E+07
41457,13.306,-16.789,-45.953,7.26E+07
41458,10.029,-15.43,-43.96,9.64E+07
41459,10.834,-16.562,-42.798,8.15E+07
41460,12.346,-15.285,-44.718,8.82E+07
41461,10.305,-17.785,-42.953,7.11E+07
41462,11.525,-16.466,-46.475,7.63E+07
41463,10.135,-16.429,-45.046,7.67E+07
41464,-31.684,-14.401,16.883,2.02E+08
41465,-30.6,-18.394,17.44,1.92E+08
41466,16.78,5.1573,-49.787,2.52E+08
41467,16.854,2.7422,-51.101,2.68E+08
41468,14.609,6.6819,-53.472,2.43E+08
41469,14.078,3.9198,-52.648,2.59E+08
41470,14.728,4.987,-51.1,2.50E+08
41471,14.688,2.1971,-50.638,2.40E+08
41472,15.381,2.5028,-53.251,2.49E+08
41473,19.189,-3.1384,-43.175,1.94E+08
41474,20.457,-3.1968,-47.113,2.09E+08
41475,21.065,-5.288,-46.11,1.73E+08
41476,18.486,-2.8462,-45.469,2.08E+08
41477,18.52,-5.8201,-44.902,1.70E+08
41478,21.515,-5.0661,-43.496,1.74E+08
41479,22.817,-3.8659,-44.916,1.85E+08
41480,-34.179,-10.745,15.189,2.19E+08
41481,-34.952,-7.3395,17.879,2.23E+08
41482,-33.635,-6.9418,14.364,2.02E+08
41483,-28.84,-9.1843,23.953,1.93E+08
41484,-29.802,-8.4888,22.255,1.84E+08
41485,-28.618,-6.9244,23.858,1.81E+08
41486,16.899,3.353,-48.151,2.64E+08
41487,13.953,6.7396,-46.227,2.46E+08
41488,14.773,5.5978,-48.15,2.47E+08
41489,18.781,-2.6865,-55.929,1.97E+08
41490,12.389,-1.1653,-56.498,2.68E+08
41491,15.615,-3.2141,-55.544,2.08E+08
41492,11.47,-2.7804,-56.526,2.47E+08
41493,12.975,-3.4101,-54.757,2.12E+08
41494,14.051,-1.2253,-55.404,2.42E+08
41495,12.67,-4.668,-56.425,2.07E+08
41496,13.893,-1.0298,-57.728,2.75E+08
41497,14.093,-11.171,-54.892,1.21E+08
41498,10.503,-10.422,-54.229,1.33E+08
41499,12.635,-11.096,-52.176,1.23E+08
41500,14.135,-9.0989,-53.332,1.32E+08
41501,10.847,-11.519,-52.607,1.30E+08
41502,11.815,-8.3947,-55.312,1.54E+08
41503,12.436,-9.281,-52.694,1.33E+08
41504,14.961,-5.954,-34.665,1.40E+08
41505,12.781,-7.0055,-33.647,1.12E+08
41506,13.66,-10.088,-33.621,1.15E+08
41507,17.934,-6.2737,-33.89,1.50E+08
41508,16.019,-11.295,-32.348,1.20E+08
41509,16.383,-8.1403,-31.949,1.26E+08
41510,13.033,-8.1217,-35.368,1.15E+08
41511,16.28,-9.2181,-34.269,1.21E+08
41512,16.742,-7.3096,-35.778,1.34E+08
41513,15.004,-8.7841,-35.334,1.20E+08
41514,13.013,-3.6047,-36.486,1.42E+08
41515,13.003,-4.8137,-35.028,1.31E+08
41516,16.323,-3.4347,-38.84,1.68E+08
41517,18.157,-4.082,-35.27,1.72E+08
41518,13.256,-5.9299,-36.748,1.35E+08
41519,14.582,-4.8931,-38.311,1.46E+08
41520,16.965,-5.1178,-37.159,1.54E+08
41521,15.226,-6.5924,-36.714,1.40E+08
41522,-34.241,-13.031,12.441,2.34E+08
41523,9.7072,8.0293,-52.013,2.78E+08
41524,9.3801,8.3048,-49.676,2.67E+08
41525,11.234,8.9806,-48.038,2.50E+08
41526,11.935,9.5338,-52.333,2.46E+08
41527,12.054,7.8388,-49.961,2.47E+08
41528,6.6729,-2.3126,-41.037,1.24E+08
41529,6.0263,-0.32948,-44.927,1.72E+08
41530,8.8135,0.8882,-44.002,1.83E+08
41531,8.8679,-2.9144,-42.051,1.43E+08
41532,8.9366,-2.0624,-44.509,1.68E+08
41533,7.1508,-2.8724,-43.736,1.50E+08
41534,9.5927,-16.985,-36.668,1.02E+08
41535,8.1166,-12.564,-35.303,9.67E+07
41536,10.598,-15.999,-34.179,1.12E+08
41537,10.805,-13.876,-34.578,1.08E+08
41538,7.4229,-17.335,-35.596,1.11E+08
41539,6.9457,-14.674,-35.716,1.02E+08
41540,8.5839,-14.45,-37.331,1.07E+08
41541,8.3272,-16.259,-36.917,1.04E+08
41542,10.231,-15.07,-36.429,1.05E+08
41543,-15.402,23.818,-47.233,5.36E+07
41544,-8.8546,25.711,-58.181,4.61E+07
41545,-9.4424,28.814,-60.606,2.23E+07
41546,-11.493,25.626,-58.878,3.05E+07
41547,9.3646,3.1938,-54.761,3.29E+08
41548,8.9038,0.6258,-56.577,3.35E+08
41549,11.062,1.9361,-54.257,2.84E+08
41550,9.783,-1.0358,-55.981,2.85E+08
41551,9.2315,0.17841,-54.384,2.84E+08
41552,11.288,-1.6656,-54.212,2.46E+08
41553,12.365,0.51918,-54.86,2.76E+08
41554,12.206,0.71471,-57.184,3.09E+08
41555,7.566,3.2404,-55.384,3.52E+08
41556,7.6997,6.0839,-51.23,3.27E+08
41557,10.255,7.3128,-53.887,2.97E+08
41558,9.7241,4.5507,-53.064,3.18E+08
41559,7.8937,2.793,-53.192,3.10E+08
41560,10.374,5.6179,-51.515,2.91E+08
41561,7.9718,3.9079,-51.35,3.03E+08
41562,7.2338,5.5056,-55.983,4.30E+08
41563,7.9885,-18.599,-37.067,1.06E+08
41564,10.23,-17.111,-39.632,9.36E+07
41565,9.7006,-18.334,-39.787,8.28E+07
41566,8.8928,-17.524,-38.387,9.89E+07
41567,10.796,-16.335,-37.9,9.96E+07
41568,15.127,-16.311,-44.75,7.79E+07
41569,17.867,-16.021,-42.162,8.00E+07
41570,12.656,-16.083,-41.595,8.65E+07
41571,14.168,-14.806,-43.515,9.39E+07
41572,16.575,-15.89,-43.829,7.98E+07
41573,16.148,-15.616,-40.31,8.96E+07
41574,14.067,-13.535,-40.897,9.83E+07
41575,16.503,-13.372,-41.937,9.86E+07
41576,13.222,-15.306,-39.863,9.28E+07
41577,-33.438,-32.267,10.143,1.35E+08
41578,-33.395,-27.669,10.638,1.64E+08
41579,-15.249,20.886,-50.631,7.76E+07
41580,7.2675,-29.332,-34.217,1.04E+08
41581,9.2551,-27.875,-33.811,1.10E+08
41582,3.3676,-4.0066,-56.407,2.81E+08
41583,2.0036,-1.1164,-56.637,3.26E+08
41584,5.5141,-0.57022,-56.625,3.38E+08
41585,1.2003,-3.1843,-55.609,2.75E+08
41586,6.3933,-2.2319,-56.029,2.85E+08
41587,5.8418,-1.0176,-54.433,2.81E+08
41588,3.2767,-2.8186,-53.748,2.57E+08
41589,1.0616,-1.1379,-54.418,2.80E+08
41590,5.5328,-3.6353,-54.452,2.44E+08
41591,3.3296,-10.282,-47.082,1.50E+08
41592,6.4588,-10.005,-51.571,1.41E+08
41593,3.0753,-8.9696,-51.236,1.69E+08
41594,2.3124,-8.8917,-48.639,1.57E+08
41595,4.8413,-9.3805,-47.374,1.45E+08
41596,3.4541,-6.6774,-50.473,1.79E+08
41597,6.6241,-8.7916,-49.201,1.47E+08
41598,3.2877,-6.938,-47.609,1.51E+08
41599,5.6784,-6.5892,-49.311,1.66E+08
41600,5.7102,-7.4941,-51.177,1.70E+08
41601,5.3135,-7.3188,-47.101,1.46E+08
41602,6.0689,-10.15,-48.913,1.42E+08
41603,2.3426,-7.3046,-54.868,2.17E+08
41604,0.64502,-5.3781,-55.966,2.50E+08
41605,2.7214,-5.0124,-54.104,2.31E+08
41606,4.9775,-5.8291,-54.808,2.19E+08
41607,4.7352,-8.3018,-35.994,7.46E+07
41608,9.0146,-7.6361,-34.709,9.49E+07
41609,9.8942,-10.719,-34.683,9.82E+07
41610,6.2998,-6.6972,-37.356,8.86E+07
41611,6.0352,-11.517,-35.822,9.30E+07
41612,5.61,-9.5896,-37.642,9.43E+07
41613,9.2672,-8.7523,-36.43,9.87E+07
41614,7.6734,-11.294,-37.436,9.82E+07
41615,7.3459,-9.1585,-38.258,1.01E+08
41616,5.7185,-6.5724,-34.894,7.01E+07
41617,9.3201,-11.913,-36.535,9.57E+07
41618,-1.3138,-16.967,-37.947,1.08E+08
41619,-1.174,-15.177,-35.637,9.52E+07
41620,0.59254,-14.35,-37.756,1.00E+08
41621,3.509,-17.506,-35.93,1.10E+08
41622,3.0318,-14.846,-36.05,1.01E+08
41623,-10.4,8.934,-51.734,2.37E+08
41624,-12.118,8.9517,-55.444,2.25E+08
41625,-13.097,10.706,-54.015,2.17E+08
41626,-12.688,9.1288,-53.235,2.22E+08
41627,-2.2589,1.0866,-43.684,1.49E+08
41628,-2.0262,-1.1881,-42.632,1.26E+08
41629,2.0147,-0.57205,-44.928,1.59E+08
41630,-1.628,-2.5719,-41.102,9.93E+07
41631,-0.56738,-3.9122,-42.442,1.15E+08
41632,1.1133,-2.7342,-44.245,1.38E+08
41633,-1.3367,-0.63646,-45.091,1.58E+08
41634,1.5667,-3.6211,-42.505,1.18E+08
41635,-1.3943,-2.8752,-44.672,1.41E+08
41636,0.25166,-1.5102,-45.83,1.59E+08
41637,-13.733,18.851,-53.394,1.04E+08
41638,-9.1358,5.3135,-47.425,2.36E+08
41639,-6.5454,3.5398,-44.962,1.98E+08
41640,-11.09,3.9794,-45.209,2.07E+08
41641,-9.9665,2.5189,-47.243,2.32E+08
41642,-7.9083,1.3901,-45.782,2.02E+08
41643,-7.6959,3.2232,-47.941,2.34E+08
41644,-10.012,1.9894,-44.833,2.25E+08
41645,-9.5495,-2.1249,-55.93,2.29E+08
41646,-6.9842,2.3077,-56.842,3.32E+08
41647,-8.9936,0.4088,-56.467,2.65E+08
41648,-5.0268,1.5525,-54.039,3.00E+08
41649,-6.4482,-2.9044,-56.44,2.53E+08
41650,-5.2398,-0.95755,-56.742,2.98E+08
41651,-8.3419,-1.8772,-53.8,2.37E+08
41652,-4.0443,-2.6803,-55.393,2.56E+08
41653,-6.1125,-2.7699,-53.571,2.29E+08
41654,-4.183,-0.63398,-54.202,2.63E+08
41655,-6.6571,0.92889,-53.084,2.64E+08
41656,-7.5487,0.79439,-54.587,2.70E+08
41657,-15.626,-7.5765,-56.536,1.14E+08
41658,-14.389,-5.152,-53.952,1.82E+08
41659,-11.977,-0.91118,-56.78,2.27E+08
41660,-9.4313,-4.2244,-56.753,2.10E+08
41661,-11.325,-3.1972,-54.113,2.02E+08
41662,-13.016,-5.6108,-55.528,1.64E+08
41663,-15,-2.6607,-54.97,1.84E+08
41664,-12.719,-1.4804,-55.157,2.10E+08
41665,-16.244,-4.6783,-49.389,2.76E+08
41666,-16.571,-9.2863,-49.904,1.93E+08
41667,-13.181,-4.9043,-51.822,1.96E+08
41668,-14.872,-7.3179,-53.237,1.65E+08
41669,-15.743,-7.2189,-48.677,1.97E+08
41670,-14.177,-5.2212,-49.593,2.14E+08
41671,-13.179,-7.4327,-50.196,1.78E+08
41672,-14.781,-8.7072,-51.062,1.76E+08
41673,-16.857,-4.3679,-52.679,1.92E+08
41674,-16.051,-10.091,-51.926,1.51E+08
41675,-3.6872,-16.08,-37.72,9.71E+07
41676,-5.1745,-17.976,-40.69,1.21E+08
41677,-1.9206,-15.254,-39.839,1.05E+08
41678,-5.4359,-15.176,-39.266,8.98E+07
41679,-6.0243,-14.669,-35.469,9.30E+07
41680,-1.7809,-13.464,-37.529,9.06E+07
41681,-3.055,-11.434,-35.818,7.31E+07
41682,-5.2962,-13.386,-36.956,8.40E+07
41683,-12.423,5.2711,-49.558,2.52E+08
41684,-11.582,5.5092,-47.304,2.29E+08
41685,-12.553,7.8404,-49.142,2.21E+08
41686,-10.458,4.0487,-49.338,2.54E+08
41687,-11.28,5.2957,-51.371,2.51E+08
41688,-8.1877,4.753,-50.036,2.52E+08
41689,-11.916,7.0382,-51.022,2.42E+08
41690,-9.0793,4.6185,-51.539,2.59E+08
41691,-4.1371,-9.5331,-50.503,1.73E+08
41692,-6.3145,-10.559,-52.134,1.53E+08
41693,-0.47068,-8.7775,-52.485,1.80E+08
41694,-1.2336,-8.6997,-49.887,1.68E+08
41695,-2.1683,-6.851,-53.584,2.05E+08
41696,-4.2364,-6.9406,-51.761,1.84E+08
41697,-2.204,-7.0673,-51.272,1.82E+08
41698,1.125,-9.9169,-38.114,8.04E+07
41699,3.8289,-5.5921,-37.942,7.73E+07
41700,-0.14913,-7.8871,-36.403,5.89E+07
41701,3.1391,-8.4845,-38.228,8.20E+07
41702,0.60024,-6.9492,-39.345,8.37E+07
41703,2.7343,-6.658,-39.408,8.70E+07
41704,3.2476,-5.4673,-35.48,5.77E+07
41705,-15.553,-13.582,-48.435,1.63E+08
41706,-15.304,-15.607,-47.111,9.61E+07
41707,-13.796,-13.513,-46.751,1.22E+08
41708,-13.764,-13.003,-49.593,1.43E+08
41709,-15.034,-14.386,-50.457,1.17E+08
41710,-15.84,-15.35,-48.247,1.20E+08
41711,-16.265,-16.37,-49.402,8.61E+07
41712,-9.4114,3.5215,-57.692,3.33E+08
41713,-10.233,6.1496,-57.504,3.19E+08
41714,-7.9666,3.907,-55.813,3.39E+08
41715,-4.2142,1.0213,-43.543,1.55E+08
41716,-5.8097,1.1463,-45.414,1.91E+08
41717,-2.5759,3.1885,-46.656,2.14E+08
41718,-3.5246,1.5729,-46.002,1.89E+08
41719,-6.8279,-16.952,-41.804,1.31E+08
41720,-15.73,0.60063,-48.357,3.00E+08
41721,-14.377,3.9369,-47.342,2.31E+08
41722,-15.348,6.2682,-49.18,2.21E+08
41723,-13.253,2.4764,-49.376,2.51E+08
41724,-14.075,3.7235,-51.409,2.48E+08
41725,-14.711,5.466,-51.06,2.38E+08
41726,-15.98,3.2029,-51.294,2.46E+08
41727,-16.373,3.7883,-48.056,2.63E+08
41728,-14.89,0.8388,-46.102,2.72E+08
41729,-15.742,-5.0381,-46.405,2.73E+08
41730,-13.766,-0.6217,-48.137,3.01E+08
41731,-14.176,-3.0404,-47.321,2.97E+08
41732,-13.811,-1.1512,-45.726,2.98E+08
41733,-15.59,-3.1662,-45.307,2.81E+08
41734,-16.885,0.69016,-46.817,2.98E+08
41735,-15.529,-13.51,-35.304,1.47E+08
41736,-16.433,-13.759,-38.145,1.28E+08
41737,-19.391,-11,-36.443,2.08E+08
41738,-16.678,-11.484,-36.41,1.58E+08
41739,-17.437,-11.868,-38.474,1.35E+08
41740,-17.273,-12.373,-34.597,1.78E+08
41741,-16.084,-15.428,-34.751,1.49E+08
41742,-18.371,-14.779,-37.165,1.55E+08
41743,-13.351,-2.8657,-39.07,1.53E+08
41744,-16.716,-3.6509,-35.735,2.34E+08
41745,-13.254,-6.0933,-35.356,1.39E+08
41746,-11.726,-4.1781,-37.343,1.24E+08
41747,-14.777,-6.5563,-36.732,1.55E+08
41748,-15.887,-4.672,-37.391,1.98E+08
41749,-13.879,-5.4443,-38.577,1.29E+08
41750,-15.046,-3.5788,-38.567,1.65E+08
41751,-13.9,-22.423,-32.766,1.35E+08
41752,-14.489,-18.877,-33.332,1.43E+08
41753,-16.372,-21.098,-33.007,1.49E+08
41754,-22.008,-16.397,-27.992,2.42E+08
41755,-23.071,-17.25,-26.059,2.27E+08
41756,-5.9604,-12.039,-44.037,1.34E+08
41757,-0.63674,-10.89,-44.603,1.45E+08
41758,-4.5574,-10.333,-46.775,1.59E+08
41759,-1.8346,-11.692,-42.095,1.21E+08
41760,-1.6539,-9.4997,-46.159,1.50E+08
41761,-4.8555,-8.6667,-44.709,1.43E+08
41762,-4.8283,-9.5963,-42.392,1.13E+08
41763,-2.3593,-8.724,-43.327,1.25E+08
41764,-3.1863,-7.6869,-45.557,1.49E+08
41765,-6.3318,-10.294,-43.736,1.29E+08
41766,-7.6998,-14.578,-42.894,1.22E+08
41767,-7.6554,-12.907,-41.017,9.97E+07
41768,-7.1338,-10.889,-41.887,1.04E+08
41769,-10.824,-12.454,-44.155,1.20E+08
41770,-9.5863,-13.149,-42.391,9.89E+07
41771,-8.6374,-11.587,-43.231,1.18E+08
41772,-9.1445,-14.447,-43.041,1.02E+08
41773,-10.22,-2.069,-41.364,1.39E+08
41774,-5.9688,-1.6977,-41.924,1.24E+08
41775,-8.5955,-3.3814,-39.637,9.91E+07
41776,-5.5706,-3.0815,-40.393,9.81E+07
41777,-7.0061,-4.3645,-43.116,1.32E+08
41778,-7.5644,-1.5726,-43.795,1.59E+08
41779,-6.9789,-5.2941,-40.799,1.03E+08
41780,-8.9655,-4.1077,-42.137,1.30E+08
41781,-9.668,-0.97342,-42.846,1.77E+08
41782,-10.859,-3.3084,-39.644,1.16E+08
41783,-11.229,-4.0347,-42.145,1.46E+08
41784,-13.011,-4.5746,-40.878,1.25E+08
41785,-11.932,-0.90046,-42.853,1.97E+08
41786,-13.71,-2.9155,-42.434,1.89E+08
41787,-14.179,-2.7091,-40.868,1.54E+08
41788,-21.115,-3.3406,-36.389,3.19E+08
41789,-19.326,-5.7291,-33.003,2.58E+08
41790,-21.713,-4.172,-34.376,2.81E+08
41791,-19.987,-5.9877,-35.731,2.74E+08
41792,-18.385,-4.5875,-36.357,2.63E+08
41793,-18.251,-3.2853,-32.701,2.54E+08
41794,-12.664,-10.94,-34.213,1.23E+08
41795,-10.763,-6.5359,-35.93,9.67E+07
41796,-11.576,-9.2669,-36.134,9.75E+07
41797,-13.813,-8.9141,-35.318,1.29E+08
41798,-14.407,-9.8023,-33.505,1.49E+08
41799,-12.915,-7.8021,-37.163,9.39E+07
41800,-10.854,-10.143,-34.089,1.12E+08
41801,-24.759,-6.0099,-37.794,2.77E+08
41802,-23.306,-5.4455,-40.125,3.06E+08
41803,-23.614,-3.9463,-36.064,3.07E+08
41804,-21.888,-5.7619,-37.419,2.92E+08
41805,-20.285,-4.3617,-38.045,2.75E+08
41806,-34.596,-8.5823,-15.73,1.30E+08
41807,-34.141,-7.2223,-11.78,1.06E+08
41808,-32.082,-7.2562,-16.288,1.17E+08
41809,-35.019,-6.565,-13.368,1.07E+08
41810,-34.337,-5.619,-14.856,9.94E+07
41811,-33.337,-9.259,-13.356,1.29E+08
41812,-35.683,-7.1594,-14.989,1.08E+08
41813,-33.398,-8.5644,-18.07,1.38E+08
41814,-34.648,-9.8826,-19.768,1.59E+08
41815,-37.57,-9.491,-19.381,1.28E+08
41816,-35.654,-6.9272,-16.637,1.21E+08
41817,-34.654,-10.567,-15.137,1.50E+08
41818,-36.999,-8.4676,-16.77,1.34E+08
41819,-35.653,-8.9881,-9.0466,1.41E+08
41820,-35.88,-6.5132,-11.2,1.05E+08
41821,-34.198,-9.2073,-11.188,1.29E+08
41822,-32.134,-8.5565,-20.326,1.44E+08
41823,-33.139,-5.6011,-17.196,1.09E+08
41824,-30.976,-7.0666,-21.327,1.35E+08
41825,-29.206,-8.0623,-20.41,1.43E+08
41826,-30.466,-9.3673,-19.388,1.51E+08
41827,-28.383,-3.8995,-31.863,1.81E+08
41828,-25.663,-5.6348,-29.415,2.06E+08
41829,-24.971,-4.2897,-32.313,2.40E+08
41830,-27.203,-5.5853,-31.2,1.99E+08
41831,-25.294,-6.4708,-31.335,2.21E+08
41832,-24.26,-13.116,-26.766,2.32E+08
41833,-23.975,-15.592,-26.092,2.38E+08
41834,-36.306,-9.4831,-21.637,1.33E+08
41835,-32.226,-8.3848,-23.024,1.54E+08
41836,-35.058,-8.4862,-23.388,1.35E+08
41837,-32.967,-9.2162,-24.587,1.52E+08
41838,-30.456,-9.3805,-22.108,1.61E+08
41839,-31.806,-10.446,-23.135,1.85E+08
41840,-31.716,-10.686,-21.086,1.69E+08
41841,-26.977,-10.575,-26.554,2.03E+08
41842,-26.97,-8.5627,-27.928,1.98E+08
41843,-29.706,-8.2762,-25.813,1.72E+08
41844,-30.447,-9.1076,-27.376,1.71E+08
41845,-28.511,-8.5132,-29.713,1.85E+08
41846,-27.937,-9.2719,-24.896,1.77E+08
41847,-26.602,-9.3987,-29.848,2.09E+08
41848,-29.287,-10.337,-25.923,2.00E+08
41849,-34.446,-3.8149,-26.932,1.13E+08
41850,-32.107,-5.2672,-24.582,1.35E+08
41851,-34.939,-5.3686,-24.946,1.15E+08
41852,-32.848,-6.0986,-26.145,1.34E+08
41853,-33.391,-3.9938,-30.937,1.21E+08
41854,-32.113,-6.2438,-32.549,1.30E+08
41855,-33.857,-4.0254,-33.074,1.12E+08
41856,-27.624,-4.3875,-33.601,2.04E+08
41857,-31.152,-6.0573,-34.709,1.32E+08
41858,-32.686,-4.0983,-35.181,1.13E+08
41859,-29.857,-5.683,-32.488,1.61E+08
41860,-37.981,-8.0946,-23.001,1.04E+08
41861,-40.566,-8.2976,-22.85,8.26E+07
41862,-38.657,-8.0681,-18.64,1.07E+08
41863,-28.19,-8.7014,-39.44,1.41E+08
41864,-31.37,-6.4659,-40.909,8.86E+07
41865,-26.737,-8.137,-41.771,1.84E+08
41866,-31.889,-8.924,-42.429,6.72E+07
41867,-30.572,-8.3077,-38.819,1.04E+08
41868,-32.068,-8.9344,-40.224,7.94E+07
41869,-25.05,-8.3404,-39.842,2.25E+08
41870,-25.358,-6.8413,-35.781,2.28E+08
41871,-28.885,-8.5111,-36.889,1.58E+08
41872,-27.59,-8.1368,-34.668,1.84E+08
41873,-23.632,-8.6569,-37.136,2.14E+08
41874,-25.681,-9.0223,-34.803,2.03E+08
41875,-35.054,-6.1216,-40.576,5.28E+07
41876,-35.402,-4.0293,-41.604,4.94E+07
41877,-35.513,-4.4358,-39.542,5.70E+07
41878,-33.382,-6.8919,-41.969,5.31E+07
41879,-32.065,-6.2756,-38.358,9.28E+07
41880,-33.561,-6.9023,-39.763,6.60E+07
41881,-33.599,-4.3166,-38.83,7.73E+07
41882,-42.134,-6.4017,-32.542,3.48E+07
41883,-44.327,-4.3152,-33.967,2.45E+07
41884,-42.278,-4.049,-33.573,3.47E+07
41885,-45.685,-3.6098,-32.014,2.38E+07
41886,-44.539,-6.3611,-31.665,2.47E+07
41887,-43.965,-4.2316,-29.773,3.39E+07
41888,-42.004,-4.9632,-30.825,4.46E+07
41889,-36.485,-6.1282,-28.775,9.37E+07
41890,-35.207,-8.3782,-30.388,1.01E+08
41891,-38.971,-8.5155,-31.092,6.08E+07
41892,-39.789,-8.5251,-28.534,6.47E+07
41893,-36.951,-6.1598,-30.912,8.06E+07
41894,-36.979,-7.6819,-26.79,9.60E+07
41895,-34.887,-8.4119,-27.989,1.16E+08
41896,-39.564,-7.8849,-26.639,7.19E+07
41897,-38.842,-7.077,-29.374,7.11E+07
41898,-34.467,-6.2404,-30.336,1.09E+08
41899,-36.211,-4.0219,-30.861,8.93E+07
41900,-36.238,-5.544,-26.738,1.02E+08
41901,-34.147,-6.2741,-27.937,1.22E+08
41902,-38.102,-4.9392,-29.322,7.86E+07
41903,-37.458,-8.1255,-42.856,2.02E+07
41904,-37.807,-6.0332,-43.884,1.76E+07
41905,-38.994,-8.9041,-46.499,7.59E+06
41906,-40.018,-8.6133,-44.458,9.66E+06
41907,-35.381,-8.7309,-46.44,9.76E+06
41908,-35.787,-8.8958,-44.249,2.24E+07
41909,-38.57,-6.573,-45.61,9.84E+06
41910,-39.505,-7.091,-43.211,1.33E+07
41911,-37.593,-5.717,-41.732,2.76E+07
41912,-39.804,-8.2971,-42.307,1.71E+07
41913,-37.704,-6.1235,-39.67,3.57E+07
41914,-35.572,-8.5797,-42.097,3.12E+07
41915,-35.752,-8.5901,-39.891,4.44E+07
41916,-35.79,-6.0044,-38.958,5.63E+07
41917,-39.291,-6.7748,-41.059,2.32E+07
41918,-34.934,-6.2719,-32.473,9.77E+07
41919,-32.228,-8.3039,-34.108,1.15E+08
41920,-32.87,-8.5241,-29.549,1.29E+08
41921,-30.933,-7.9296,-31.886,1.48E+08
41922,-41.535,-8.7746,-30.799,3.87E+07
41923,-43.903,-8.848,-34.245,2.08E+07
41924,-42.911,-6.6784,-34.781,2.62E+07
41925,-40.862,-6.4122,-34.387,3.66E+07
41926,-43.123,-8.7243,-32.479,2.60E+07
41927,-38.698,-6.4092,-33.177,5.76E+07
41928,-40.588,-7.3264,-31.639,4.57E+07
41929,-38.052,-4.0312,-40.697,3.20E+07
41930,-38.705,-4.1645,-44.486,1.55E+07
41931,-40.268,-3.3524,-42.062,1.95E+07
41932,-39.64,-4.6825,-42.087,2.00E+07
41933,-43.941,-8.7339,-29.921,2.95E+07
41934,-43.367,-6.6045,-28.03,3.93E+07
41935,-42.127,-8.1439,-26.345,5.17E+07
41936,-41.406,-7.3361,-29.081,4.93E+07
41937,-43.259,-3.2471,-51.736,4.69E+06
41938,-43.22,-4.1473,-53.373,5.62E+06
41939,-41.515,-4.4772,-51.623,5.37E+06
41940,-47.584,-9.1523,-29.892,1.06E+07
41941,-50.506,-9.8938,-31.187,6.51E+06
41942,-49.615,-8.2225,-30.476,6.54E+06
41943,-49.486,-10.833,-25.492,1.17E+07
41944,-42.564,-8.7734,-48.806,7.19E+06
41945,-41.34,-9.0756,-45.949,6.85E+06
41946,-39.892,-7.0354,-47.101,6.14E+06
41947,-40.947,-7.4724,-48.967,6.08E+06
41948,-43.587,-8.4826,-46.765,6.32E+06
41949,-46.981,-8.4283,-48.232,6.85E+06
41950,-46.282,-6.1924,-48.162,5.78E+06
41951,-47.117,-8.4066,-50.933,6.52E+06
41952,-44.938,-5.6491,-49.896,5.73E+06
41953,-44.9,-6.5494,-51.533,5.65E+06
41954,-43.195,-6.8793,-49.783,5.95E+06
41955,-46.64,-6.9891,-38.216,6.71E+06
41956,-46.096,-6.7615,-35.669,1.12E+07
41957,-48.72,-6.7568,-36.175,5.40E+06
41958,-46.309,-8.8074,-33.367,1.04E+07
41959,-49.23,-9.5489,-34.662,5.72E+06
41960,-48.339,-7.8776,-33.952,5.84E+06
41961,-44.277,-6.9159,-42.604,7.38E+06
41962,-45.648,-4.8195,-38.752,1.11E+07
41963,-46.972,-4.6257,-44.001,5.57E+06
41964,-48.272,-4.8148,-39.257,5.79E+06
41965,-44.393,-4.0635,-41.332,1.10E+07
41966,-46.291,-3.5658,-40.412,8.84E+06
41967,-43.765,-5.3937,-41.356,1.15E+07
41968,-46.197,-6.8783,-42.002,6.66E+06
41969,-47.917,-5.0316,-41.985,5.89E+06
41970,-45.757,-8.7305,-45.375,6.94E+06
41971,-40.915,-6.7446,-45.06,7.53E+06
41972,-41.851,-7.2625,-42.661,1.06E+07
41973,-44.283,-8.7472,-43.307,7.43E+06
41974,-47.728,-4.5872,-36.711,9.87E+06
41975,-43.055,-4.3257,-35.812,2.68E+07
41976,-46.462,-3.8865,-34.253,1.49E+07
41977,-45.317,-6.6378,-33.904,1.58E+07
41978,-43.849,-3.8359,-38.785,1.52E+07
41979,-45.748,-3.3382,-37.866,1.35E+07
41980,-43.221,-5.1661,-38.81,1.54E+07
41981,-47.347,-5.708,-34.488,1.07E+07
41982,-51.514,-4.0124,-35.065,4.16E+06
41983,-50.248,-3.3117,-32.607,8.42E+06
41984,-54.812,-2.9146,-33.072,8.04E+06
41985,-51.133,-5.1332,-32.842,5.38E+06
41986,-53.336,-2.8363,-31.395,8.87E+06
41987,-50.583,-6.6624,-59.379,2.23E+06
41988,-48.459,-9.6331,-60.762,2.23E+06
41989,-48.923,-9.2907,-57.701,3.47E+06
41990,-48.451,-6.4403,-46.772,6.02E+06
41991,-50.275,-6.1218,-46.009,5.68E+06
41992,-49.287,-8.6545,-49.543,6.36E+06
41993,-51.4,-9.3275,-47.711,7.03E+06
41994,-50.77,-7.2306,-47.924,6.05E+06
41995,-47.677,-8.6928,-44.774,6.77E+06
41996,-51.522,-7.8551,-46.017,6.24E+06
41997,-49.397,-6.8461,-44.757,5.76E+06
41998,-54.24,-6.5742,-39.676,5.99E+06
41999,-55.434,-8.3999,-40.153,7.06E+06
42000,-52.357,-6.6169,-37.455,5.08E+06
42001,-52.867,-9.409,-35.943,7.97E+06
42002,-55.255,-9.2564,-35.552,9.52E+06
42003,-52.267,-4.195,-61.056,1.41E+06
42004,-53.312,-5.7321,-52.156,3.84E+06
42005,-54.925,-3.5015,-51.858,2.68E+06
42006,-50.945,-5.8016,-52.04,4.50E+06
42007,-53.752,-3.7222,-53.546,2.59E+06
42008,-52.428,-4.3777,-50.421,3.85E+06
42009,-49.576,-3.8858,-45.94,4.59E+06
42010,-50.07,-4.9947,-47.854,4.74E+06
42011,-46.409,-3.6611,-48.436,4.47E+06
42012,-46.978,-6.4569,-44.704,5.88E+06
42013,-48.697,-4.6102,-44.687,4.90E+06
42014,-57.377,-4.2239,-40.459,4.30E+06
42015,-55.312,-6.3228,-42.134,5.47E+06
42016,-52.235,-4.5398,-39.436,3.78E+06
42017,-52.759,-4.0322,-43.417,4.13E+06
42018,-54.006,-5.7655,-43.424,4.99E+06
42019,-51.881,-4.7566,-42.164,4.51E+06
42020,-55.645,-3.2268,-41.781,3.82E+06
42021,-55.46,-4.1399,-58.635,1.08E+06
42022,-57.593,-3.877,-55.011,1.69E+06
42023,-57.208,-5.8138,-59.628,9.33E+05
42024,-57.901,-5.7243,-57.805,1.33E+06
42025,-56.42,-4.0977,-56.699,1.42E+06
42026,-60.013,-4.174,-57.33,1.35E+06
42027,-55.775,-8.8064,-50.313,4.87E+06
42028,-55.77,-6.2633,-52.178,3.62E+06
42029,-51.79,-8.5634,-52.36,5.18E+06
42030,-56.079,-8.1105,-54.973,3.27E+06
42031,-53.902,-9.2364,-50.528,5.74E+06
42032,-54.597,-6.484,-53.866,3.40E+06
42033,-53.272,-7.1395,-50.741,4.69E+06
42034,-54.867,-6.2324,-60.122,1.44E+06
42035,-55.56,-6.1428,-58.3,1.46E+06
42036,-54.078,-4.5163,-57.193,1.75E+06
42037,-58.571,-6.0496,-40.936,5.39E+06
42038,-58.903,-2.9536,-40.583,4.44E+06
42039,-64.853,-5.998,-47.45,2.83E+06
42040,-64.2,-4.1217,-47.439,2.55E+06
42041,-61.823,-8.5887,-43.357,4.72E+06
42042,-64.6,-9.8802,-42.332,4.90E+06
42043,-57.389,-6.5758,-50.015,4.13E+06
42044,-60.11,-8.5107,-48.366,4.45E+06
42045,-59.458,-6.6344,-48.354,4.13E+06
42046,-56.95,-8.6338,-45.381,5.84E+06
42047,-58.738,-8.401,-46.637,4.97E+06
42048,-55.521,-9.549,-48.366,6.13E+06
42049,-54.891,-7.452,-48.578,4.91E+06
42050,-55.644,-8.0765,-46.671,5.63E+06
42051,-59.453,-4.0912,-50.219,2.63E+06
42052,-56.211,-4.2534,-53.568,2.27E+06
42053,-54.886,-4.9089,-50.443,3.65E+06
42054,-59.804,-4.3296,-54.2,2.29E+06
42055,-62.175,-6.0261,-48.569,3.32E+06
42056,-61.455,-7.7927,-46.852,4.28E+06
42057,-64.103,-8.3385,-50.415,3.34E+06
42058,-60.802,-5.9164,-46.841,3.94E+06
42059,-58.294,-7.9158,-43.868,5.69E+06
42060,-55.077,-9.0638,-45.596,6.02E+06
42061,-55.2,-7.5913,-43.901,5.90E+06
42062,-49.086,-3.8818,-34.758,8.06E+06
42063,-48.372,-3.3335,-38.371,7.27E+06
42064,-49.998,-4.7993,-39.944,4.21E+06
42065,-50.862,-7.3746,-35.704,5.32E+06
42066,-49.971,-5.7033,-34.993,4.51E+06
42067,-51.894,-4.6762,-47.092,4.40E+06
42068,-52.647,-5.3007,-45.184,4.87E+06
42069,-50.521,-4.2917,-43.924,4.66E+06
42070,-39.584,-4.2486,-37.027,3.85E+07
42071,-38.842,-4.0565,-34.208,5.80E+07
42072,-41.8,-3.5697,-38.392,2.53E+07
42073,-41.172,-4.8998,-38.416,2.54E+07
42074,-40.732,-4.9737,-32.67,4.52E+07
42075,-46.674,-5.9324,-31.951,1.50E+07
42076,-48.479,-2.9426,-29.312,1.27E+07
42077,-46.1,-3.8029,-30.059,2.44E+07
42078,-48.705,-5.0026,-32.535,9.38E+06
42079,-44.955,-6.5542,-29.71,2.53E+07
42080,-42.994,-7.2858,-30.761,3.59E+07
42081,-48.451,-9.4252,-32.896,7.00E+06
42082,-47.559,-7.7539,-32.186,1.04E+07
42083,-37.421,-4.2456,-35.816,5.83E+07
42084,-40.379,-3.7589,-40,2.77E+07
42085,-36.25,-4.3186,-37.923,6.20E+07
42086,-39.751,-5.089,-40.025,2.81E+07
42087,-35.507,-4.1265,-35.104,7.89E+07
42088,-38.569,-4.9707,-31.459,6.62E+07
42089,-34.85,-11.025,-10.622,1.63E+08
42090,-10.769,-14.238,-35.006,1.14E+08
42091,-12.812,-15.188,-36.366,1.07E+08
42092,-13.941,-13.678,-37.325,1.01E+08
42093,-11.949,-11.756,-36.405,1.01E+08
42094,-14.186,-11.403,-35.589,1.28E+08
42095,-11.972,-13.198,-37.867,9.29E+07
42096,-14.781,-12.291,-33.776,1.51E+08
42097,-13.592,-15.347,-33.931,1.35E+08
42098,-11.227,-12.631,-34.36,1.17E+08
42099,-3.5833,-2.6372,-40.961,1.00E+08
42100,-5.0188,-3.9202,-43.684,1.35E+08
42101,-5.5771,-1.1284,-44.363,1.62E+08
42102,-2.5226,-3.9775,-42.301,1.15E+08
42103,-3.292,-0.70177,-44.95,1.59E+08
42104,-3.3496,-2.9405,-44.531,1.42E+08
42105,1.1835,-11.836,-42.156,1.22E+08
42106,1.3642,-9.6438,-46.22,1.50E+08
42107,3.1977,-10.403,-42.27,1.23E+08
42108,3.8932,-10.133,-44.956,1.40E+08
42109,0.65882,-8.8681,-43.387,1.25E+08
42110,3.552,-12.126,-43.058,1.35E+08
42111,2.7929,-8.5769,-43.45,1.28E+08
42112,4.5073,-11.517,-45.072,1.47E+08
42113,-17.706,-12.304,-46.281,1.57E+08
42114,-16.647,-13.739,-46.824,1.42E+08
42115,-16.068,-9.6461,-46.92,2.13E+08
42116,-15.139,-11.645,-46.463,1.67E+08
42117,-15.106,-11.134,-49.306,1.90E+08
42118,-16.377,-12.518,-50.169,1.65E+08
42119,-17.182,-13.482,-47.959,1.68E+08
42120,-7.6373,-10.946,-50.639,1.55E+08
42121,-2.5564,-9.0866,-48.392,1.64E+08
42122,-5.758,-8.2535,-46.942,1.55E+08
42123,-5.5592,-7.3275,-50.266,1.77E+08
42124,-7.7863,-8.9631,-48.87,1.74E+08
42125,-4.0887,-7.2738,-47.789,1.62E+08
42126,-6.6976,-7.4291,-48.442,1.73E+08
42127,-3.5268,-7.4541,-49.777,1.74E+08
42128,-10.544,-15.997,-36.887,9.50E+07
42129,-7.7731,-13.765,-37.015,8.96E+07
42130,-9.681,-12.565,-36.927,8.72E+07
42131,-9.704,-14.007,-38.389,8.21E+07
42132,-8.9594,-13.441,-34.882,1.03E+08
42133,-12.242,4.2506,-57.128,2.47E+08
42134,-10.769,-0.66347,-54.65,2.35E+08
42135,-12.177,2.6853,-55.269,2.48E+08
42136,-12.163,1.0533,-55.694,2.44E+08
42137,-9.976,2.0081,-55.437,2.69E+08
42138,-14.508,6.5063,-46.926,1.95E+08
42139,-12.413,2.7146,-47.122,2.25E+08
42140,-12.458,2.1851,-44.711,2.18E+08
42141,-15.532,4.0265,-45.801,2.36E+08
42142,-1.9145,-0.76508,-57.545,3.36E+08
42143,-0.71901,-2.4879,-56.196,2.95E+08
42144,-0.85771,-0.44151,-55.005,3.01E+08
42145,7.9844,-0.98928,-56.604,3.17E+08
42146,7.433,0.22496,-55.007,3.13E+08
42147,6.773,2.9376,-57.799,4.41E+08
42148,9.2268,7.0352,-47.255,2.54E+08
42149,8.5236,4.3867,-47.063,2.50E+08
42150,10.047,5.8934,-49.178,2.72E+08
42151,5.1822,5.7644,-48.182,2.86E+08
42152,7.6447,4.1834,-49.013,2.72E+08
42153,12.376,-14.155,-33.56,1.12E+08
42154,14.735,-15.361,-32.287,1.18E+08
42155,13.448,-15.968,-34.51,1.08E+08
42156,11.802,-15.349,-35.412,1.08E+08
42157,10.832,-4.6561,-35.469,1.12E+08
42158,11.085,-5.7724,-37.19,1.16E+08
42159,10.313,-4.3191,-39.129,1.24E+08
42160,12.411,-4.7355,-38.752,1.27E+08
42161,11.703,-8.9482,-33.984,1.05E+08
42162,11.076,-6.9814,-35.731,1.06E+08
42163,14.941,-13.238,-32.685,1.15E+08
42164,11.955,-10.064,-35.705,1.08E+08
42165,12.853,-11.454,-36.843,1.09E+08
42166,15.202,-11.161,-34.606,1.15E+08
42167,13.926,-10.727,-35.67,1.13E+08
42168,13.655,-13.844,-34.908,1.06E+08
42169,12.008,-13.225,-35.81,1.06E+08
42170,-31.073,-9.6304,24.248,2.09E+08
42171,-32.389,-9.3603,26.728,1.98E+08
42172,-29.89,-8.0661,25.852,2.06E+08
42173,14.285,-14.923,-46.2,8.94E+07
42174,14.074,-14.129,-48.486,9.65E+07
42175,16.692,-16.007,-46.514,7.57E+07
42176,16.867,-14.276,-48.635,8.44E+07
42177,13.463,-16.104,-47.957,7.87E+07
42178,14.362,-11.904,-52.253,1.11E+08
42179,17.741,-12.762,-54.567,9.36E+07
42180,17.898,-10.131,-54.13,1.07E+08
42181,15.862,-9.9063,-53.409,1.20E+08
42182,17.155,-12.051,-52.402,9.80E+07
42183,12.572,17.651,-52.257,1.48E+08
42184,19.432,-15.717,-43.926,7.63E+07
42185,19.005,-15.443,-40.406,8.50E+07
42186,20.856,-14.207,-44.167,8.24E+07
42187,21.009,-14.096,-41.257,8.83E+07
42188,22.551,-14.693,-44.313,7.37E+07
42189,22.867,-13.643,-42.114,8.42E+07
42190,19.36,-13.199,-42.033,9.47E+07
42191,18.487,-1.143,-49.489,2.43E+08
42192,17.065,-1.2903,-51.756,2.33E+08
42193,16.079,-1.6977,-49.337,2.30E+08
42194,14.848,3.1827,-49.464,2.64E+08
42195,14.808,0.39283,-49.003,2.55E+08
42196,15.5,0.69852,-51.616,2.61E+08
42197,16.516,-0.79237,-47.845,2.42E+08
42198,-29.299,-7.1869,32.657,2.02E+08
42199,-31.902,-3.8072,42.503,9.24E+07
42200,-34.553,-4.5636,39.236,8.81E+07
42201,-31.882,-6.2427,41.4,1.05E+08
42202,-33.764,-6.4912,39.974,9.95E+07
42203,25.167,-12.69,-52.223,5.81E+07
42204,29.315,-14.631,-53.691,2.89E+07
42205,27.302,-13.097,-52.709,4.69E+07
42206,-23.681,-3.5911,34.988,2.24E+08
42207,-22.359,-5.2376,36.098,2.49E+08
42208,-12.261,-2.4472,37.859,3.83E+08
42209,-14.763,-4.1447,39.864,3.93E+08
42210,-13.298,-4.7164,38.008,3.74E+08
42211,-12.071,-3.4592,39.431,3.65E+08
42212,28.995,-11.898,-28.899,1.11E+08
42213,29.417,-9.8973,-28.817,1.22E+08
42214,29.515,-12.11,-26.3,1.14E+08
42215,31.382,-12.842,-26.619,1.11E+08
42216,33.324,-10.937,-26.673,1.09E+08
42217,31.213,-9.867,-26.073,1.20E+08
42218,28.385,-10.017,-26.661,1.19E+08
42219,31.432,-12.808,-29.04,1.10E+08
42220,-30.103,-5.9555,46.002,8.38E+07
42221,-32.289,-4.0361,47.125,7.86E+07
42222,-33.822,-4.411,45.825,6.94E+07
42223,-31.252,-6.0504,43.979,8.77E+07
42224,34.219,-11.599,-21.426,1.27E+08
42225,35.808,-10.395,-23.164,1.24E+08
42226,34.519,-9.6844,-20.593,1.34E+08
42227,36.013,-15.51,-6.5597,1.25E+08
42228,35.849,-17.695,-7.763,1.31E+08
42229,-26.398,-7.9385,48.866,1.17E+08
42230,-31.119,-6.3767,48.045,6.81E+07
42231,-30.083,-8.3911,44.899,1.39E+08
42232,-49.842,-6.1837,52.412,2.35E+07
42233,-46.881,-5.6049,49.786,3.25E+07
42234,-47.426,-8.4541,52.749,6.00E+07
42235,-47.362,-9.2209,50.742,7.51E+07
42236,-7.3916,-15.91,34.701,1.88E+08
42237,-4.6108,-15.352,37.397,1.28E+08
42238,-4.2814,-17.456,36.284,1.17E+08
42239,-5.1562,-18.277,34.752,1.38E+08
42240,4.0898,-11.975,36.352,8.97E+07
42241,3.156,-14.281,35.822,7.49E+07
42242,2.0263,-12.904,37.497,8.71E+07
42243,1.2246,-9.6319,35.721,1.14E+08
42244,0.54621,-11.005,38.115,1.01E+08
42245,2.734,-9.9446,37.391,9.55E+07
42246,7.7923,-9.8319,46.845,1.65E+08
42247,8.5134,-8.8777,45.013,1.93E+08
42248,7.0149,-7.601,45.158,1.66E+08
42249,5.9407,-7.524,47.121,1.62E+08
42250,8.0903,-8.9049,49.083,1.76E+08
42251,-6.9134,5.0858,56.436,2.55E+08
42252,-7.3013,8.36,57.124,2.16E+08
42253,-7.3261,7.0743,53.406,2.48E+08
42254,-4.927,6.9793,56.447,2.72E+08
42255,-6.2848,6.0624,58.259,2.38E+08
42256,-6.6429,8.5234,54.624,2.44E+08
42257,-5.8587,6.1,54.687,2.85E+08
42258,-48.371,-6.1173,58.779,2.35E+07
42259,-49.638,-4.2423,56,5.63E+07
42260,-47.222,-6.5127,56.337,2.22E+07
42261,-46.482,-5.4234,58.139,2.90E+07
42262,5.4431,6.6052,53.705,2.69E+08
42263,6.0886,7.9932,56.908,2.39E+08
42264,5.0827,5.5169,55.987,2.50E+08
42265,5.5535,3.9359,53.701,2.41E+08
42266,4.6986,7.7731,55.506,2.69E+08
42267,7.8223,7.5396,58,1.87E+08
42268,2.7245,-16.617,53.984,5.44E+07
42269,1.6703,-17.997,55.163,4.75E+07
42270,0.7268,-19.288,50.756,7.49E+07
42271,3.3095,-18.027,51.312,6.12E+07
42272,0.98538,-17.107,52.163,6.63E+07
42273,0.71215,-20.605,46.849,1.04E+08
42274,3.1839,-19.69,45.02,8.14E+07
42275,0.45934,-19.473,44.224,1.01E+08
42276,1.7732,-19.854,42.673,1.01E+08
42277,5.5079,-1.0451,48.929,2.35E+08
42278,6.511,-1.5017,52.571,2.06E+08
42279,5.711,0.35734,51.39,2.45E+08
42280,5.1604,-2.3419,50.646,2.10E+08
42281,-5.0156,1.7614,58.932,2.73E+08
42282,-4.3773,5.292,57.1,3.04E+08
42283,-5.7351,4.3751,58.912,2.70E+08
42284,-5.309,4.4126,55.34,3.19E+08
42285,-4.928,0.6481,56.328,2.93E+08
42286,-5.1666,2.3299,54.731,3.35E+08
42287,-3.7603,2.9452,57.215,3.00E+08
42288,-7.6802,2.452,58.253,2.27E+08
42289,39.571,-19.924,6.3109,1.07E+08
42290,41.699,-21.148,7.7793,9.70E+07
42291,37.937,-20.643,10.435,1.30E+08
42292,39.598,-21.772,5.7121,1.14E+08
42293,39.625,-19.952,8.5533,1.12E+08
42294,6.5192,-15.387,62.116,2.25E+07
42295,36.1,-4.8365,10.725,7.28E+07
42296,36.171,-7.2962,10.356,7.01E+07
42297,35.555,-4.557,8.656,5.70E+07
42298,33.489,-5.9354,11.588,8.52E+07
42299,-6.664,14.357,63.71,2.71E+08
42300,-6.5968,12,59.873,2.51E+08
42301,-6.6759,16.008,60.236,3.19E+08
42302,-4.1125,12.118,62.021,2.81E+08
42303,-4.7355,15.266,62.943,2.80E+08
42304,-4.1528,13.232,59.1,2.94E+08
42305,-4.818,16.905,60.532,3.07E+08
42306,-3.4388,14.529,61.08,2.86E+08
42307,-4.944,15.382,59.243,3.00E+08
42308,-7.3148,11.943,63.365,2.39E+08
42309,-6.3622,15.73,62.3,3.02E+08
42310,-5.0309,13.301,63.8,2.72E+08
42311,-1.3595,-5.8164,62.446,1.85E+08
42312,2.1693,-1.0368,61.245,2.43E+08
42313,3.6002,-3.2594,61.195,1.90E+08
42314,-1.3101,-1.7609,61.627,2.49E+08
42315,2.0349,-5.3314,60.718,1.93E+08
42316,1.3369,-2.9234,60.069,2.41E+08
42317,-0.7256,-4.0464,60.981,2.30E+08
42318,-1.2634,-2.9809,62.858,2.28E+08
42319,33.167,-11.278,18.463,1.11E+08
42320,35.472,-11.864,18.17,1.02E+08
42321,36.094,-14.36,18.473,1.01E+08
42322,33.04,-8.4598,16.597,1.25E+08
42323,33.752,-10.395,16.627,1.09E+08
42324,31.985,-8.1229,15.151,1.17E+08
42325,43.216,-19.248,17.226,1.08E+08
42326,39.375,-19.681,18.285,1.52E+08
42327,43.51,-16.913,15.801,8.74E+07
42328,40.983,-18.827,17.067,1.20E+08
42329,43.229,-14.798,16.596,7.15E+07
42330,41.611,-16.815,16.03,8.94E+07
42331,39.594,-16.67,17.781,9.38E+07
42332,47.268,-21.111,15.454,1.05E+08
42333,51.069,-19.374,15.857,8.15E+07
42334,49.345,-18.901,14.741,8.04E+07
42335,52.04,-21.038,14.892,8.62E+07
42336,5.2208,14.654,63.136,3.14E+08
42337,5.479,16.744,64.681,3.20E+08
42338,5.6499,18.253,63.281,3.36E+08
42339,6.842,14.82,64.097,3.19E+08
42340,5.1111,16.889,62.369,3.26E+08
42341,5.6686,18.571,61.115,3.45E+08
42342,5.0054,12.572,54.326,2.96E+08
42343,5.7602,15.92,55.676,3.01E+08
42344,6.1922,11.551,57.152,2.67E+08
42345,5.0748,13.87,56.892,2.91E+08
42346,4.6234,14.858,54.482,2.96E+08
42347,4.8022,11.331,55.75,2.88E+08
42348,-6.9922,21.841,60.894,4.03E+08
42349,-7.3684,20.414,58.969,4.01E+08
42350,-7.2379,24.981,56.885,4.15E+08
42351,-5.5105,21.311,59.264,3.74E+08
42352,-5.7958,23.792,59.168,3.89E+08
42353,-5.718,22.967,56.831,3.80E+08
42354,64.242,-1.9821,7.8498,4.87E+07
42355,60.795,-2.8282,9.8013,3.39E+07
42356,63.15,-1.0445,10.401,2.82E+07
42357,63.086,-4.2212,9.9608,4.83E+07
42358,64.793,-2.7551,10.054,4.60E+07
42359,61.206,-4.5951,7.6545,5.63E+07
42360,-6.9213,19.39,61.114,3.66E+08
42361,-4.9809,18.648,63.821,3.20E+08
42362,-5.0634,20.287,61.41,3.47E+08
42363,-4.1664,20.385,65.728,2.92E+08
42364,-5.3487,22.767,61.314,3.58E+08
42365,-4.4498,22.247,63.488,3.22E+08
42366,-3.3893,19.916,63.26,3.08E+08
42367,-6.6076,19.111,63.178,3.48E+08
42368,-5.3453,15.57,65.369,2.64E+08
42369,-7.9246,12.247,65.792,2.32E+08
42370,-6.972,16.034,64.726,2.94E+08
42371,-5.6406,13.605,66.227,2.55E+08
42372,-6.427,14.136,68.078,2.33E+08
42373,60.89,-14.823,12.463,7.79E+07
42374,58.597,-16.564,11.904,8.11E+07
42375,60.897,-16.712,14.083,7.88E+07
42376,63.069,-16.384,13.229,8.52E+07
42377,4.3903,24.877,52.538,2.96E+08
42378,65.345,-5.5313,16.132,3.76E+07
42379,63.181,-2.8103,17.729,1.70E+07
42380,63.426,-7.3915,15.111,4.41E+07
42381,62.629,-7.7219,17.824,3.23E+07
42382,60.505,-6.5687,15.87,2.96E+07
42383,62.781,-4.1769,16.226,2.18E+07
42384,62.793,-5.3705,14.703,3.34E+07
42385,60.639,-4.6268,16.518,2.14E+07
42386,60.787,-4.6373,18.844,1.97E+07
42387,54.513,-11.35,19.591,3.23E+07
42388,54.491,-9.2651,16.339,3.17E+07
42389,55.591,-10.965,16.781,3.96E+07
42390,56.915,-8.6677,16.493,3.18E+07
42391,52.787,-3.0659,8.8226,4.50E+07
42392,52.376,-0.48301,8.3189,6.82E+07
42393,55.663,-1.8126,11.155,4.54E+07
42394,53.388,-2.6774,12.348,5.40E+07
42395,51.815,-3.8444,10.901,4.82E+07
42396,54.282,-3.5001,10.611,4.03E+07
42397,8.8031,28.8,59.785,6.25E+08
42398,6.8113,26.018,60.224,4.96E+08
42399,6.4373,26.447,62.739,4.90E+08
42400,9.9605,27.097,63.883,6.26E+08
42401,7.7665,30.182,55.755,4.64E+08
42402,6.4195,30.145,57.456,4.81E+08
42403,9.1906,31.496,56.469,5.41E+08
42404,6.8131,31.809,56.486,4.36E+08
42405,7.1334,30.393,67.228,4.60E+08
42406,4.2242,28.339,65.354,3.72E+08
42407,4.0408,28.75,68.607,3.05E+08
42408,-0.75532,25.83,80.624,5.00E+07
42409,-1.5195,23.944,78.42,6.88E+07
42410,-0.37555,22.014,78.136,1.09E+08
42411,1.7487,24.016,77.987,1.06E+08
42412,0.77218,25.974,79.058,7.35E+07
42413,0.32423,23.304,77.709,1.02E+08
42414,-6.302,33.315,82.245,8.18E+07
42415,-5.5992,35.559,79.416,7.88E+07
42416,-5.2193,35.734,82.111,7.04E+07
42417,-4.7824,34.246,80.681,7.07E+07
42418,-6.9482,33.999,77.701,1.02E+08
42419,79.731,1.7001,10.316,8.95E+07
42420,76.728,1.4396,12.85,6.66E+07
42421,78.21,2.4572,15.411,5.89E+07
42422,79.23,4.8028,13.992,5.63E+07
42423,79.974,2.3353,16.536,6.45E+07
42424,77.175,3.013,13.958,5.57E+07
42425,77.826,0.79216,14.359,7.06E+07
42426,75.452,10.343,18.953,2.47E+07
42427,72.683,12.376,15.762,3.43E+07
42428,70.561,11.935,17.243,4.92E+07
42429,73.634,9.6522,15.492,2.14E+07
42430,74.996,11.411,15.714,2.26E+07
42431,72.231,9.4723,16.742,2.88E+07
42432,-4.3726,38.205,72.896,5.19E+07
42433,-4.1588,42.463,72.767,3.90E+07
42434,-5.337,40.498,74.674,5.00E+07
42435,74.35,9.9768,8.9951,2.46E+07
42436,71.898,12.079,11.285,2.39E+07
42437,70.095,10.527,10.788,2.55E+07
42438,72.848,9.3555,11.015,1.93E+07
42439,74.211,11.115,11.237,1.90E+07
42440,73.103,11.066,7.9881,2.01E+07
42441,5.3796,28.833,85.122,1.28E+08
42442,6.9289,36.292,89.156,9.31E+07
42443,5.7124,35.043,88.502,8.69E+07
42444,6.8655,35.421,85.54,1.05E+08
42445,6.4368,38.38,85.143,8.12E+07
42446,4.985,36.746,86.719,7.88E+07
42447,8.1064,37.635,89.287,9.65E+07
42448,76.832,19.905,16.235,3.97E+07
42449,77.313,17.003,15.652,2.82E+07
42450,79.075,17.903,16.595,2.67E+07
42451,7.2296,45.02,86.63,4.65E+07
42452,7.4178,47.959,88.903,3.68E+07
42453,5.0278,45.287,89.232,4.33E+07
42454,7.43,44.296,90.752,5.74E+07
42455,7.8395,47.287,87.132,3.61E+07
42456,6.0328,37.511,92.788,7.67E+07
42457,6.2009,37.241,96.142,6.78E+07
42458,3.7345,38.216,95.385,5.35E+07
42459,4.1624,41.146,93.896,5.44E+07
42460,4.0845,40.239,96.078,5.41E+07
42461,6.4557,41.026,93.456,6.60E+07
42462,3.7592,38.106,92.76,5.75E+07
42463,2.7151,39.309,94.204,4.79E+07
42464,7.2104,38.854,92.918,7.97E+07
42465,0.57128,47.824,77.46,3.84E+07
42466,0.6815,48.182,81.419,3.22E+07
42467,2.3732,46.702,80.032,3.77E+07
42468,0.54407,46.01,78.423,3.87E+07
42469,0.10416,46.141,80.913,3.61E+07
42470,-1.61,45.823,74.404,3.52E+07
42471,-0.21789,45.487,76.665,3.93E+07
42472,1.2887,44.931,75.14,4.47E+07
42473,79.399,9.4977,10.306,4.41E+07
42474,75.585,8.5271,10.758,3.11E+07
42475,76.948,10.286,10.98,2.93E+07
42476,78.186,8.4364,11.734,3.99E+07
42477,75.841,10.237,7.731,3.34E+07
42478,-2.769,34.175,104.39,7.26E+06
42479,-4.5478,34.65,99.896,8.26E+06
42480,-2.9817,35.807,102.65,6.43E+06
42481,-0.69307,34.495,103.04,1.44E+07
42482,-1.4428,35.873,100.86,1.50E+07
42483,-1.1366,45.746,85.185,3.41E+07
42484,1.7214,46.538,82.233,3.64E+07
42485,-2.0579,47.327,84.056,3.03E+07
42486,-0.54759,45.977,83.114,3.66E+07
42487,1.207,45.979,84.149,3.59E+07
42488,-4.6909,44.201,76.132,3.30E+07
42489,-5.2489,45.346,81.825,3.45E+07
42490,-5.8691,42.235,78.04,4.78E+07
42491,-3.2987,43.864,78.393,3.89E+07
42492,-3.7386,43.996,80.883,3.89E+07
42493,-4.6641,42.229,79.859,4.43E+07
42494,84.068,17.413,9.8044,3.13E+07
42495,86.03,16.514,9.6769,4.06E+07
42496,84.718,14.862,10.575,4.04E+07
42497,82.791,15.966,9.3381,3.26E+07
42498,87.217,17.009,7.7433,4.58E+07
42499,-4.5564,36.81,91.387,3.40E+07
42500,-4.7552,38.058,89.276,4.20E+07
42501,-5.5511,39.472,90.867,4.06E+07
42502,-7.2851,39.675,91.797,4.51E+07
42503,79.426,9.9692,19.198,2.12E+07
42504,80.209,9.1883,16.713,3.10E+07
42505,81.276,11.477,16.522,2.69E+07
42506,88.174,14.801,12.166,4.80E+07
42507,87.741,14.771,14.252,4.16E+07
42508,86.862,13.149,13.064,4.78E+07
42509,90.082,14.678,13.754,5.07E+07
42510,-0.40969,49.573,91.377,3.32E+07
42511,-4.5445,47.853,92.558,3.05E+07
42512,-2.4673,46.713,93.11,3.24E+07
42513,-2.1773,49.054,94.16,3.49E+07
42514,-1.3714,48.184,92.453,3.33E+07
42515,-3.0235,47.636,91.118,3.22E+07
42516,4.6053,49.954,89.518,2.98E+07
42517,2.2153,47.282,89.847,3.60E+07
42518,1.0607,48.265,91.354,3.38E+07
42519,5.764,43.307,101.11,5.34E+07
42520,0.41331,34.899,107.54,1.41E+07
42521,-5.1509,36.049,108.23,3.45E+06
42522,-3.2177,36.142,105.34,4.45E+06
42523,-0.92908,34.831,105.74,1.31E+07
42524,-2.7449,36.528,107.25,6.23E+06
42525,-0.60825,36.161,107.57,1.34E+07
42526,4.1199,35.862,109.91,2.00E+07
42527,2.4893,35.219,106.2,2.19E+07
42528,3.9902,36.973,106.22,3.06E+07
42529,2.8101,36.549,108.04,2.23E+07
42530,82.021,27.73,11.425,2.61E+07
42531,83.897,29.562,14.386,2.98E+07
42532,82.865,27.247,14.133,2.82E+07
42533,83.489,29.393,12.103,2.62E+07
42534,95.308,33.636,17.33,2.48E+07
42535,91.762,35.179,15.733,2.12E+07
42536,94.356,36.165,16.162,2.26E+07
42537,92.426,32.47,15.884,2.23E+07
42538,93.76,33.717,15.192,2.34E+07
42539,90.894,32.951,18.825,2.66E+07
42540,97.101,28.346,9.0277,3.33E+07
42541,96.041,27.736,10.445,3.10E+07
42542,92.43,29.758,8.96,2.51E+07
42543,93.726,30.284,11.474,2.46E+07
42544,93.719,27.851,9.5455,2.91E+07
42545,95.06,31.532,10.782,2.71E+07
42546,97.454,29.777,11,2.82E+07
42547,95.359,29.18,11.546,2.73E+07
42548,95.477,31.778,8.5487,2.99E+07
42549,97.905,26.538,10.363,3.52E+07
42550,99.318,28.579,10.918,3.14E+07
42551,110.96,56.866,16.182,8.06E+06
42552,107.8,54.899,14.349,5.47E+06
42553,6.535,35.626,94.472,7.77E+07
42554,5.1504,34.648,90.463,8.10E+07
42555,4.0933,36.491,91.09,6.70E+07
42556,4.423,36.351,88.68,7.14E+07
42557,7.5445,37.24,91.248,8.97E+07
42558,64.508,0.25272,10.237,2.67E+07
42559,66.151,-1.4578,9.8901,4.34E+07
42560,-4.655,10.065,60.611,2.57E+08
42561,-4.7651,8.5662,57.787,2.68E+08
42562,-6.1229,7.6493,59.599,2.35E+08
42563,-6.481,10.11,55.964,2.45E+08
42564,-4.6954,11.179,57.69,2.69E+08
42565,-5.4396,18.86,59.485,3.38E+08
42566,-5.5656,17.337,58.196,3.30E+08
42567,-6.9839,17.685,61.253,3.44E+08
42568,6.013,-14.382,48.12,9.29E+07
42569,5.902,-14.729,45.734,8.06E+07
42570,8.1411,-10.847,44.589,1.66E+08
42571,5.9943,-11.597,44.345,1.05E+08
42572,6.6425,-9.5705,44.734,1.40E+08
42573,5.5684,-9.4935,46.697,1.35E+08
42574,5.5861,-11.536,48.791,1.20E+08
42575,4.4043,-12.966,46.66,8.89E+07
42576,7.7179,-10.874,48.659,1.48E+08
42577,8.1448,-13.288,44.775,1.40E+08
42578,4.2115,-11.244,47.132,1.09E+08
42579,5.4005,-13.395,44.81,8.34E+07
42580,7.1936,24.695,76.691,2.25E+08
42581,6.8564,26.093,78.947,2.00E+08
42582,5.682,24.287,77.932,1.86E+08
42583,8.1014,25.868,77.555,2.35E+08
42584,6.3771,23.559,79.946,2.07E+08
42585,7.6042,-4.4376,40.848,2.43E+08
42586,9.2911,-7.5028,42.303,2.45E+08
42587,7.7925,-6.2261,42.448,2.21E+08
42588,10.392,-4.4358,39.8,3.41E+08
42589,-58.746,-8.4422,-61.113,1.02E+06
42590,-55.774,-8.3693,-63.292,1.03E+06
42591,-57.308,-7.8167,-59.292,1.43E+06
42592,-33.87,-21.587,-6.91,1.98E+08
42593,-34.793,-8.4859,3.2368,1.86E+08
42594,-10.128,-25.021,-33.208,1.26E+08
42595,-34.932,-30.886,-3.7855,1.59E+08
42596,-34.15,-33.762,-7.6011,1.24E+08
42597,-8.3773,-33.504,-33.791,7.22E+07
42598,-34.939,-24.472,2.5965,2.10E+08
42599,-34.017,-24.334,8.4092,1.97E+08
42600,-35.074,-32.963,-0.8711,1.41E+08
42601,-35.177,-27.918,-0.45397,1.87E+08
42602,12.22,-26.42,-32.715,1.22E+08
42603,-10.957,24.889,-57.244,4.00E+07
42604,-32.238,-23.037,13.901,1.80E+08
42605,-29.95,-23.034,18.153,1.73E+08
42606,-20.727,-28.05,27.892,1.53E+08
42607,24.09,-31.854,-25.381,8.89E+07
42608,25.147,-33.659,-24.318,7.82E+07
42609,28.358,-26.217,-20.765,1.23E+08
42610,-13.378,-31.169,32.432,8.55E+07
42611,-13.682,-34.259,32.176,6.37E+07
42612,-10.483,-34.509,32.947,7.09E+07
42613,36.107,-2.4377,5.8179,6.51E+07
42614,33.932,-31.775,8.1456,1.44E+08
42615,33.892,-34.31,8.1485,1.19E+08
42616,-10.225,48.009,107.93,2.89E+07
42617,-59.439,-8.3527,-59.29,1.48E+06
42618,-51.536,-9.3059,-50.412,5.91E+06
42619,-50.906,-7.2089,-50.625,5.10E+06
42620,-47.206,-6.7756,-52.844,5.05E+06
42621,-49.612,-9.2239,-54.009,5.27E+06
42622,-46.759,-3.5644,-27.071,2.34E+07
42623,-33.496,-9.185,-45.681,1.91E+07
42624,-21.825,-6.3348,-32.678,2.33E+08
42625,-20.099,-8.1504,-34.033,2.30E+08
42626,-17.981,-9.5227,-32.187,1.97E+08
42627,-18.363,-5.448,-31.003,2.12E+08
42628,-22.148,-8.5159,-31.7,2.21E+08
42629,-25.324,-13.968,-24.833,2.15E+08
42630,-25.602,-9.4799,-26.881,2.02E+08
42631,-26.569,-10.189,-23.849,1.85E+08
42632,-27.919,-11.255,-24.876,2.08E+08
42633,-17.456,-14.329,-44.957,9.54E+07
42634,-16.68,-13.411,-42.29,8.22E+07
42635,-16.878,-10.236,-45.054,1.57E+08
42636,-15.949,-12.235,-44.597,1.11E+08
42637,-17.685,-11.519,-42.619,1.10E+08
42638,-17.992,-14.072,-46.093,1.16E+08
42639,-19.939,-12.1,-43.882,1.58E+08
42640,-36.077,-4.91,-14.276,9.75E+07
42641,-37.422,-6.4503,-14.409,1.09E+08
42642,-36.74,-5.5043,-15.896,1.00E+08
42643,-20.78,-6.853,-41.899,1.98E+08
42644,-22.179,-8.0925,-39.467,2.27E+08
42645,-22.479,-9.5404,-42.761,2.31E+08
42646,-31.405,-17.82,-16.005,2.10E+08
42647,-30.279,-13.685,-19.225,1.99E+08
42648,-32.932,-21.293,-11.719,1.94E+08
42649,-32.499,-21.846,-13.875,1.98E+08
42650,-16.602,-6.7543,-43.659,1.83E+08
42651,-19.362,-7.1694,-39.193,2.04E+08
42652,-17.409,-8.037,-41.224,1.44E+08
42653,-17.76,-5.7692,-39.819,1.96E+08
42654,-15.752,-6.5415,-41.004,1.33E+08
42655,-16.45,-4.8825,-42.56,1.87E+08
42656,-16.92,-4.6761,-40.995,1.68E+08
42657,-18.063,-4.4728,-42.005,2.04E+08
42658,-26.364,-18.872,-23.038,2.08E+08
42659,-28.105,-23.637,-21.091,1.76E+08
42660,-26.714,-23.036,-23.141,1.84E+08
42661,-33.133,-23.373,-11.886,1.91E+08
42662,-15.441,-23.032,-32.487,1.39E+08
42663,-13.716,-15.437,-39.206,8.26E+07
42664,-11.747,-14.957,-39.749,8.29E+07
42665,-13.367,-17.106,-35.813,1.15E+08
42666,-11.305,-16.254,-40.399,8.24E+07
42667,-15.621,-14.846,-42.833,5.96E+07
42668,-14.89,-13.67,-45.14,1.00E+08
42669,-16.933,-15.507,-46.636,1.01E+08
42670,-35.018,-11.078,0.48322,1.97E+08
42671,-14.457,11.144,-47.217,1.64E+08
42672,-14.582,14.852,-47.411,1.54E+08
42673,-15.491,12.541,-44.527,1.62E+08
42674,-15.249,9.6126,-51.423,1.99E+08
42675,-14.841,8.0353,-50.644,2.09E+08
42676,-16.503,6.3577,-47.64,2.27E+08
42677,-16.513,10.234,-46.074,1.73E+08
42678,-2.6435,1.7235,-52.624,2.91E+08
42679,-5.1176,3.2864,-51.506,2.94E+08
42680,-2.0961,3.4956,-50.589,2.88E+08
42681,-3.0449,1.8799,-49.935,2.61E+08
42682,-6.0092,3.1519,-53.009,3.00E+08
42683,-11.657,-9.8742,-53.542,1.33E+08
42684,-7.7366,-8.3533,-51.897,1.56E+08
42685,-9.9637,-9.989,-50.501,1.61E+08
42686,-11.566,-11.263,-51.367,1.54E+08
42687,-9.4371,-12.206,-52.868,1.37E+08
42688,-32.636,-40.28,-11.53,6.52E+07
42689,-32.787,-37.989,-12.986,9.23E+07
42690,2.425,-13.132,-37.941,9.81E+07
42691,-1.2884,-10.607,-37.937,7.54E+07
42692,1.9998,-11.205,-39.762,9.95E+07
42693,-3.5296,-12.559,-39.075,8.65E+07
42694,-3.008,-10.542,-39.945,8.96E+07
42695,-0.53905,-9.6693,-40.879,1.02E+08
42696,2.3541,-12.927,-40.55,1.12E+08
42697,-15.684,17.635,-50.658,1.22E+08
42698,-14.042,8.6332,-55.511,2.16E+08
42699,-12.998,5.3134,-55.081,2.43E+08
42700,-13.634,7.0559,-54.732,2.31E+08
42701,-15.028,6.5425,-55.902,2.19E+08
42702,4.7038,-6.8798,-39.59,9.61E+07
42703,7.5885,-4.5894,-40.317,1.10E+08
42704,4.299,-5.0534,-40.77,1.01E+08
42705,6.4397,-6.4488,-40.206,1.04E+08
42706,5.8714,-4.5474,-42.003,1.15E+08
42707,6.8875,1.1964,-46.158,1.93E+08
42708,5.9305,-0.12187,-49.949,2.31E+08
42709,3.3654,-1.9229,-49.264,2.01E+08
42710,3.199,-2.1834,-46.4,1.71E+08
42711,3.5461,2.5741,-47.277,2.43E+08
42712,1.6977,1.5299,-47.9,2.16E+08
42713,0.74895,-8.57E-02,-47.246,1.85E+08
42714,7.0106,-1.7542,-46.666,1.81E+08
42715,6.0086,0.99305,-48.108,2.22E+08
42716,5.5897,-1.8346,-48.102,1.89E+08
42717,5.2248,-2.5643,-45.893,1.64E+08
42718,2.3373,-0.95943,-47.985,1.93E+08
42719,-34.857,-37.989,3.157,9.88E+07
42720,-34.639,-35.941,1.4711,1.08E+08
42721,-34.224,-36.858,5.7183,1.01E+08
42722,-34.147,-38.348,4.7739,8.55E+07
42723,-17.046,-40.125,-29.954,4.84E+07
42724,9.4958,-14.841,-42.286,1.06E+08
42725,11.008,-13.564,-44.206,1.12E+08
42726,10.907,-12.293,-41.588,1.15E+08
42727,9.5353,-11.409,-44.246,1.25E+08
42728,6.7064,-13.463,-42.45,1.23E+08
42729,8.4155,-13.445,-41.456,1.14E+08
42730,8.0881,-11.31,-42.278,1.17E+08
42731,7.6617,-12.854,-44.463,1.35E+08
42732,8.7963,-14.709,-44.534,1.01E+08
42733,7.0802,-14.685,-42.782,1.19E+08
42734,10.378,5.0625,-45.425,2.18E+08
42735,11.901,6.5692,-47.54,2.38E+08
42736,-33.516,-7.4745,21.445,2.01E+08
42737,-34.598,-5.1384,22.41,2.08E+08
42738,15.721,-4.5655,-41.106,1.55E+08
42739,18.104,-4.7902,-39.954,1.61E+08
42740,16.76,-2.8149,-43.93,1.89E+08
42741,16.794,-5.7888,-43.363,1.53E+08
42742,17.729,-6.8284,-41.722,1.45E+08
42743,19.79,-5.0348,-41.957,1.58E+08
42744,15.4,-4.0035,-43.41,1.70E+08
42745,-33.35,-8.6648,25.03,1.82E+08
42746,-33.117,-6.5987,23.516,1.94E+08
42747,-30.851,-7.3705,24.154,1.96E+08
42748,23.967,-3.8254,-35.737,1.80E+08
42749,19.579,-6.2683,-32.555,1.54E+08
42750,19.476,-7.346,-34.874,1.51E+08
42751,22.381,-6.4307,-32.925,1.57E+08
42752,22.38,-5.9091,-35.954,1.61E+08
42753,19.938,-5.4376,-36.384,1.64E+08
42754,24.096,-5.8584,-34.652,1.63E+08
42755,-25.531,-3.5797,30.239,2.12E+08
42756,-24.596,-5.042,28.663,2.05E+08
42757,-28.406,-4.6299,29.826,1.94E+08
42758,-28.418,-4.7867,27.23,1.98E+08
42759,10.046,-31.919,-33.509,8.62E+07
42760,14.553,-33.641,-31.651,8.10E+07
42761,12.034,-30.462,-33.103,9.26E+07
42762,29.61,-13.762,-37.154,8.56E+07
42763,27.475,-9.5625,-38.384,1.06E+08
42764,24.983,-12.273,-36.377,1.02E+08
42765,24.318,-11.94,-39.087,9.86E+07
42766,28.478,-11.54,-39.477,8.54E+07
42767,25.486,-9.4758,-37.665,1.19E+08
42768,26.176,-11.487,-39.944,9.43E+07
42769,27.202,-9.4252,-36.363,1.21E+08
42770,27.384,-10.19,-29.759,1.19E+08
42771,27.481,-12.403,-27.242,1.14E+08
42772,24.792,-12.601,-32.339,1.07E+08
42773,25.297,-10.325,-30.598,1.21E+08
42774,26.352,-10.31,-27.603,1.18E+08
42775,27.155,-13.528,-31.219,9.67E+07
42776,29.399,-13.1,-29.982,1.07E+08
42777,26.988,-6.5993,-29.049,1.36E+08
42778,29.601,-8.1589,-26.933,1.28E+08
42779,25.719,-8.3244,-30.517,1.31E+08
42780,26.774,-8.3088,-27.521,1.27E+08
42781,27.434,-7.7522,-32.243,1.37E+08
42782,30.745,-13.766,-38.714,7.42E+07
42783,15.541,-37.337,-30.904,6.25E+07
42784,16.575,-39.677,-30.32,4.58E+07
42785,27.206,-5.4195,-37.915,1.49E+08
42786,25.216,-5.3328,-37.196,1.60E+08
42787,26.932,-5.2821,-35.894,1.63E+08
42788,29.32,-2.7872,-38.143,1.68E+08
42789,11.781,25.936,-50.776,4.78E+07
42790,-22.959,-4.8544,30.199,2.17E+08
42791,-22.571,-5.0386,32.886,2.49E+08
42792,-21.637,-6.5009,31.31,2.48E+08
42793,-20.477,-6.5441,29.249,2.23E+08
42794,-23.099,-39.811,26.745,4.21E+07
42795,30.929,-3.0791,-57.813,3.52E+07
42796,34.193,-2.2071,-57.674,1.74E+07
42797,34.236,-2.828,-55.934,2.59E+07
42798,-16.041,-8.1635,34.512,3.28E+08
42799,-18.28,-6.6118,33.27,2.78E+08
42800,-14.138,-6.4943,34.977,3.15E+08
42801,-13.504,-7.5972,33.226,2.80E+08
42802,-17.12,-6.655,31.21,2.56E+08
42803,-42.692,-5.19,38.186,4.52E+07
42804,-38.913,-4.4535,38.83,7.19E+07
42805,-45.807,-7.5305,39.413,4.88E+07
42806,-19.009,-8.237,35.238,3.23E+08
42807,-16.333,-7.5478,38.8,3.57E+08
42808,-14.868,-8.1195,36.944,3.61E+08
42809,-14.233,-9.2224,35.193,3.26E+08
42810,-16.103,-10.667,37.485,4.02E+08
42811,-10.438,-16.403,33.675,2.46E+08
42812,-17.162,-29.451,30.327,1.20E+08
42813,-15.183,-32.2,31.774,8.00E+07
42814,-7.9401,-2.6768,41.423,2.41E+08
42815,-5.61,-5.1515,37.742,1.79E+08
42816,-8.9686,-2.2579,37.665,2.89E+08
42817,-6.2053,-4.3454,40.091,1.97E+08
42818,-8.7784,-3.2699,39.236,2.79E+08
42819,-7.8008,-5.0606,38.339,2.37E+08
42820,-5.3674,-2.2852,38.424,1.87E+08
42821,36.807,-13.544,-13.341,1.78E+08
42822,36.967,-16.282,-14.55,1.76E+08
42823,-23.052,-6.1741,48.839,1.64E+08
42824,35.328,-11.501,-0.11617,1.21E+08
42825,36.545,-12.682,-3.764,1.23E+08
42826,35.031,-12.94,-1.4197,1.23E+08
42827,36.547,-10.571,-3.9916,1.34E+08
42828,-9.8176,-9.0636,44.548,2.71E+08
42829,-9.9242,-11.582,42.093,2.45E+08
42830,-9.854,-5.7203,43.511,2.71E+08
42831,-13.384,-6.9988,41.758,3.15E+08
42832,-9.2353,-9.9455,41.059,2.75E+08
42833,-7.8992,-10.212,43.123,2.38E+08
42834,-11.919,-7.5705,39.902,3.31E+08
42835,-8.1192,-7.3889,42.18,2.46E+08
42836,-10.692,-6.3134,41.325,3.24E+08
42837,-12.831,-8.9425,43.145,3.11E+08
42838,-9.7146,-8.1041,40.428,2.93E+08
42839,-8.8688,-11.955,44.245,1.96E+08
42840,-8.5846,-9.9604,49.231,1.97E+08
42841,-8.7986,-6.093,45.663,2.29E+08
42842,-6.8438,-10.585,45.275,1.97E+08
42843,-7.0638,-7.7617,44.332,2.04E+08
42844,-7.6238,-7.1874,47.474,1.94E+08
42845,-6.5596,-9.9628,47.263,1.84E+08
42846,-8.4111,-7.995,49.04,2.15E+08
42847,-6.7953,-8.1755,46.341,1.89E+08
42848,-9.1524,-16.822,41.916,1.63E+08
42849,-7.3399,-16.092,43.327,1.46E+08
42850,-7.8868,-18.075,42.203,1.41E+08
42851,-6.2971,-14.424,40.71,1.52E+08
42852,-8.2865,-12.837,40.756,2.11E+08
42853,-6.9504,-13.103,42.821,1.69E+08
42854,-8.9794,-16.023,43.181,1.56E+08
42855,-10.111,-14.926,42.183,1.57E+08
42856,-15.738,-5.3366,43.874,3.84E+08
42857,-15.185,-7.2803,45.261,3.51E+08
42858,-14.707,-3.711,46.858,5.22E+08
42859,-14.001,-3.9484,47.987,5.64E+08
42860,2.4565,-3.8945,39.849,1.58E+08
42861,-2.3751,-5.8627,38.558,1.35E+08
42862,-0.23991,-5.6722,37.922,1.15E+08
42863,-2.9705,-5.0566,40.907,1.47E+08
42864,1.333,-4.1441,41.656,1.41E+08
42865,-2.0025,-3.4823,42.831,1.51E+08
42866,-0.91831,-7.0451,40.316,1.11E+08
42867,1.2695,-5.985,39.592,1.11E+08
42868,-0.37796,-5.6683,41.968,1.19E+08
42869,-2.1326,-2.9964,39.24,1.40E+08
42870,4.514,-34.711,34.722,8.78E+07
42871,0.92432,-33.827,34.976,8.05E+07
42872,5.1988,-32.431,34.559,1.06E+08
42873,34.883,-13.113,0.91928,1.29E+08
42874,34.689,-13.472,2.7946,1.27E+08
42875,5.6768,-5.5511,41.447,1.76E+08
42876,4.365,-4.0123,41.655,1.85E+08
42877,4.3015,-5.8532,39.59,1.48E+08
42878,8.2761,-3.7608,38.8,2.98E+08
42879,-7.517,-18.441,43.452,1.35E+08
42880,-8.0639,-20.424,42.328,1.37E+08
42881,-9.1564,-18.372,43.306,1.44E+08
42882,-10.288,-17.275,42.308,1.38E+08
42883,-10.486,-20.306,41.92,1.35E+08
42884,35.152,-28.088,-1.0342,1.43E+08
42885,34.807,-29.11,-2.7959,1.26E+08
42886,34.751,-29.628,-5.0225,1.19E+08
42887,35.967,-25.681,-5.3323,1.37E+08
42888,6.9578,-34.725,34.231,1.02E+08
42889,8.5,-36.759,33.681,1.08E+08
42890,8.1541,-38.318,33.532,1.18E+08
42891,6.473,-38.757,33.827,1.12E+08
42892,-7.2204,-13.037,51.466,1.39E+08
42893,-6.4603,-10.882,51.985,1.54E+08
42894,-6.3819,-10.487,49.794,1.60E+08
42895,-8.2335,-8.519,51.572,2.07E+08
42896,42.327,-18.982,6.1275,7.14E+07
42897,39.61,-15.678,6.5179,7.96E+07
42898,40.227,-19.607,4.0603,9.35E+07
42899,40.253,-17.787,6.9016,8.81E+07
42900,41.425,-16.707,4.9223,7.45E+07
42901,40.993,-16.064,2.9933,7.91E+07
42902,-6.5058,8.8246,52.246,2.73E+08
42903,-4.3307,8.194,51.457,3.27E+08
42904,-5.7217,6.4012,52.31,3.15E+08
42905,-5.6047,6.1579,50.455,3.47E+08
42906,-4.9559,-6.9464,59.824,1.70E+08
42907,-4.3406,-7.0446,57.882,1.95E+08
42908,-4.819,-4.0042,56.401,2.65E+08
42909,-5.1064,-6.4767,55.63,2.17E+08
42910,-3.6118,-5.8689,56.227,2.18E+08
42911,-4.322,-5.1764,58.359,2.20E+08
42912,-7.1028,-6.2299,54.308,2.30E+08
42913,-4.285,-10.312,63.017,8.86E+07
42914,-4.7104,-13.721,63.58,4.39E+07
42915,-4.1109,-14.034,63.37,4.96E+07
42916,-5.191,-13.226,61.849,3.84E+07
42917,-6.628,-11.852,64.411,2.94E+07
42918,-4.8855,-11.48,64.155,6.27E+07
42919,-4.7769,-12.169,65.317,6.86E+07
42920,21.293,-6.7097,27.974,4.47E+08
42921,8.3167,-20.043,39.419,6.82E+07
42922,7.9324,-19.118,41.764,6.96E+07
42923,8.9874,-18.056,43.035,1.03E+08
42924,9.7283,-22.202,43.766,6.10E+07
42925,-3.1509,-8.0848,60.47,1.47E+08
42926,-3.1323,-6.2166,60.948,1.78E+08
42927,-3.67,-5.151,62.824,1.74E+08
42928,-4.6722,-10.901,61.244,8.31E+07
42929,-4.5018,-6.6072,63.326,1.23E+08
42930,-4.3668,-9.1553,63.55,9.66E+07
42931,45.237,-9.9331,3.6785,2.86E+07
42932,43.063,-12.032,1.069,4.78E+07
42933,-5.1117,-12.731,57.059,9.15E+07
42934,-5.1375,-10.237,58.364,1.20E+08
42935,-6.6587,-13.053,59.138,7.14E+07
42936,50.053,-5.6705,7.4653,3.77E+07
42937,49.08,-6.449,9.5437,3.87E+07
42938,45.079,-8.5536,8.9468,3.99E+07
42939,46.3,-6.7245,10.547,4.64E+07
42940,46.642,-8.3142,7.2768,3.76E+07
42941,47.874,-8.792,9.349,3.64E+07
42942,44.567,-6.5932,9.2596,4.72E+07
42943,6.7816,-10.044,66.559,4.02E+07
42944,3.3619,9.2719,66.199,2.99E+08
42945,3.12E-02,8.6355,63.556,3.04E+08
42946,3.6307,8.3996,61.286,2.91E+08
42947,0.3417,5.6164,63.103,3.04E+08
42948,2.72,9.7908,63.743,3.05E+08
42949,1.5805,8.6908,62.05,3.13E+08
42950,1.94,6.4697,62.275,3.05E+08
42951,52.544,-2.3009,6.4199,4.50E+07
42952,51.983,-5.6623,9.002,3.78E+07
42953,54.449,-5.3179,8.712,3.69E+07
42954,56.242,-5.3974,7.1095,4.61E+07
42955,44.842,-18.796,14.405,9.27E+07
42956,42.314,-20.709,15.672,1.25E+08
42957,46.625,-18.92,15.118,9.46E+07
42958,42.942,-18.698,14.635,9.08E+07
42959,18.464,-34.18,29.832,1.80E+08
42960,15.215,-32.176,31.606,1.56E+08
42961,16.267,-34.213,30.84,1.76E+08
42962,25.524,-33.5,23.838,2.50E+08
42963,28.389,-35.998,20.024,1.76E+08
42964,24.768,-35.676,24.32,2.10E+08
42965,23.67,-33.971,25.588,2.48E+08
42966,2.4088,13.32,66.951,2.91E+08
42967,3.8488,11.975,65.589,2.99E+08
42968,4.1071,14.065,67.134,2.96E+08
42969,5.47,12.142,66.55,2.88E+08
42970,62.655,3.7137,10.554,3.16E+07
42971,60.887,6.7738,7.5852,5.14E+07
42972,61.661,8.0819,7.3455,5.01E+07
42973,-6.0339,26.368,53.061,3.49E+08
42974,-3.7919,26.788,55.382,3.06E+08
42975,-4.364,28.827,55.379,3.16E+08
42976,-6.2803,29.62,55.611,3.87E+08
42977,-5.5944,25.907,57.306,3.62E+08
42978,-5.5166,25.083,54.968,3.54E+08
42979,5.1879,30.923,52.286,2.09E+08
42980,5.942,27.39,54.047,3.10E+08
42981,5.9168,29.31,55.098,3.31E+08
42982,8.6879,30.66,54.11,3.99E+08
42983,6.3104,30.973,54.127,2.90E+08
42984,4.7685,33.925,51.85,1.33E+08
42985,4.2345,32.55,53.017,1.88E+08
42986,-10.159,27.509,64.147,6.66E+08
42987,4.4504,24.247,72.975,1.97E+08
42988,6.2332,27.105,76.535,1.84E+08
42989,5.0588,25.299,75.52,1.75E+08
42990,4.8706,26.421,72.403,2.05E+08
42991,4.7024,27.828,74.823,1.65E+08
42992,7.4783,26.88,75.143,2.26E+08
42993,-59.253,-3.4776,85.818,2.17E+07
42994,-2.1312,34.608,72.274,9.10E+07
42995,-4.4213,38.122,75.143,6.01E+07
42996,-3.5925,36.211,75.71,6.93E+07
42997,-1.1792,35.948,73.45,6.89E+07
42998,-3.3083,33.58,73.893,8.66E+07
42999,-1.847,34.446,75.302,6.99E+07
43000,-4.9415,34.651,73.995,9.23E+07
43001,-1.9975,37.037,75.12,5.93E+07
43002,-8.3812,30.056,73.506,1.93E+08
43003,-8.2641,29.688,71.126,2.34E+08
43004,-6.7644,31.532,72.937,1.68E+08
43005,-8.3976,32.602,73.039,1.84E+08
43006,4.6525,42.6,73.479,7.80E+07
43007,8.5581,42.381,72.823,1.24E+08
43008,6.0973,42.223,83.651,5.69E+07
43009,5.1125,44.717,82.529,4.12E+07
43010,4.61,44.642,86.813,4.19E+07
43011,4.598,44.157,84.445,4.30E+07
43012,7.6635,42.405,82.414,6.31E+07
43013,7.4217,46.642,84.714,3.53E+07
43014,82.445,3.4229,7.0698,1.02E+08
43015,-5.0936,43.824,91.791,3.25E+07
43016,-4.17,45.075,93.192,2.87E+07
43017,-3.88,47.416,94.242,3.01E+07
43018,-6.8277,44.028,92.72,3.47E+07
43019,-4.7262,45.998,91.2,3.07E+07
43020,90.68,21.051,14.494,2.95E+07
43021,89.078,24.207,15.735,1.99E+07
43022,91.245,23.32,16.096,2.33E+07
43023,88.073,19.278,16.385,2.49E+07
43024,88.28,22.519,14.25,2.22E+07
43025,90.413,19.184,15.887,3.11E+07
43026,89.727,23.115,18.548,2.02E+07
43027,91.539,21.124,16.662,2.67E+07
43028,87.671,21.464,15.924,2.11E+07
43029,92.008,21.301,19.14,2.27E+07
43030,82.884,25.704,12.28,2.24E+07
43031,83.507,27.85,10.249,2.04E+07
43032,83.458,28.289,8.3522,1.81E+07
43033,81.116,24.273,11.714,2.36E+07
43034,84.458,24.835,10.336,1.75E+07
43035,82.325,24.103,9.3761,1.79E+07
43036,7.1728,51.69,106.29,4.05E+07
43037,9.1686,53.26,104.61,3.73E+07
43038,-6.0902,40.057,108.93,9.66E+06
43039,-4.8908,38.067,108.39,4.62E+06
43040,-5.6886,38.622,110.4,6.09E+06
43041,-2.7159,47.734,105.88,2.99E+07
43042,-0.14904,48.148,105.5,3.55E+07
43043,-1.0514,47.275,107.81,3.15E+07
43044,0.13286,50.953,107.74,3.86E+07
43045,98.185,30.561,17.094,2.48E+07
43046,97.617,26.847,14.619,2.77E+07
43047,99.031,28.888,15.173,2.50E+07
43048,99.317,29.414,17.976,2.35E+07
43049,96.936,28.291,15.72,2.41E+07
43050,92.694,37.072,11.432,1.88E+07
43051,95.287,38.058,11.861,2.31E+07
43052,94.691,35.61,10.891,2.41E+07
43053,95.108,35.857,8.6576,2.63E+07
43054,98.647,47.006,13.707,1.19E+07
43055,97.059,41.418,14.711,1.72E+07
43056,96.37,44.458,14.079,8.54E+06
43057,98.284,44.69,12.861,1.41E+07
43058,-3.7988,37.995,122.9,2.63E+06
43059,117.08,38.872,15.903,1.07E+07
43060,113.68,37.416,15.814,2.18E+07
43061,115.24,38.864,15.36,1.75E+07
43062,119.92,42.065,13.572,3.13E+06
43063,98.889,47.274,11.543,1.39E+07
43064,103.68,34.072,12.254,2.17E+07
43065,102.39,36.393,11.842,2.94E+07
43066,100.78,32.592,15.474,2.36E+07
43067,97.028,35.885,15.563,2.55E+07
43068,96.432,33.438,14.593,2.65E+07
43069,98.826,31.683,14.81,2.57E+07
43070,99.482,34.913,15.062,3.13E+07
43071,99.112,32.209,17.612,2.56E+07
43072,96.731,31.086,15.357,2.56E+07
43073,101.62,30.919,13.554,2.39E+07
43074,102.28,34.149,13.806,2.72E+07
43075,101.91,31.445,16.356,2.22E+07
43076,93.482,37.429,13.967,1.95E+07
43077,91.553,33.734,13.688,1.92E+07
43078,92.886,34.981,12.996,2.03E+07
43079,89.691,34.636,12.475,1.87E+07
43080,95.48,35.967,13.425,2.44E+07
43081,98.53,37.442,13.895,2.92E+07
43082,95.387,41.454,13.764,1.43E+07
43083,94.524,26.043,10.881,2.99E+07
43084,94.827,25.506,13.287,2.81E+07
43085,98.259,27.969,12.335,2.90E+07
43086,96.163,27.372,12.882,2.76E+07
43087,96.94,23.59,11.995,3.93E+07
43088,87.3,29.742,9.8681,1.82E+07
43089,90.92,30.498,11.325,2.13E+07
43090,90.913,28.065,9.396,2.37E+07
43091,89.05,28.415,11.441,2.00E+07
43092,87.251,30.181,7.9717,1.74E+07
43093,89.059,31.4,10.112,1.87E+07
43094,89.505,18.803,11.394,3.92E+07
43095,91.94,23.353,10.786,3.31E+07
43096,92.244,22.816,13.191,3.11E+07
43097,89.278,22.015,11.345,2.92E+07
43098,91.412,18.68,12.982,4.15E+07
43099,92.537,20.62,13.758,3.64E+07
43100,94.357,20.899,11.9,4.29E+07
43101,88.67,20.959,13.02,2.70E+07
43102,90.691,19.298,9.4605,4.44E+07
43103,84.76,27.536,15.24,2.56E+07
43104,85.384,29.682,13.21,2.36E+07
43105,89.004,30.438,14.666,2.13E+07
43106,87.134,28.355,14.783,2.10E+07
43107,87.143,31.34,13.453,2.23E+07
43108,86.446,30.028,17.085,2.85E+07
43109,-4.756,44.34,106.29,2.02E+07
43110,-3.6842,40.537,107.95,1.14E+07
43111,-4.2114,42.383,106.41,1.68E+07
43112,-3.0916,43.881,108.21,2.07E+07
43113,-4.482,41.092,109.96,9.22E+06
43114,-2.7208,36.68,118.07,4.66E+06
43115,-3.342,37.964,113.48,3.44E+06
43116,3.276,40.81,104.95,3.70E+07
43117,-0.56796,42.6,104.91,2.55E+07
43118,1.4543,44.971,104.4,3.49E+07
43119,2.0959,40.386,106.77,2.85E+07
43120,0.55187,44.098,106.71,3.09E+07
43121,1.3266,41.278,104.83,3.03E+07
43122,3.0124,43.103,103.49,3.97E+07
43123,0.33299,43.046,102.92,3.00E+07
43124,4.2416,45.31,104.81,4.16E+07
43125,3.0984,37.124,109.93,1.99E+07
43126,-0.67461,47.415,98.814,3.54E+07
43127,-3.8728,47.45,101.88,3.05E+07
43128,-1.3059,47.863,101.5,3.46E+07
43129,-2.3149,48.682,97.76,3.57E+07
43130,-2.4272,45.938,100.02,3.07E+07
43131,-3.4576,36.682,99.064,1.21E+07
43132,-4.1643,37.953,97.504,1.85E+07
43133,4.2366,36.332,97.07,5.44E+07
43134,2.1969,44.625,95.643,4.16E+07
43135,2.119,43.718,97.825,4.02E+07
43136,1.1366,46.532,100.64,3.76E+07
43137,-0.1625,45.009,95.848,3.39E+07
43138,0.12752,47.35,96.899,3.67E+07
43139,9.20E-04,43.264,97.43,3.26E+07
43140,2.6947,44.664,99.728,4.08E+07
43141,1.53E-02,44.606,99.158,3.31E+07
43142,0.93344,46.479,95.191,3.60E+07
43143,2.9121,47.524,99.753,4.19E+07
43144,7.7437,50.171,95.366,3.99E+07
43145,86.237,16.016,17.163,2.66E+07
43146,85.358,14.394,15.975,3.16E+07
43147,76.793,18.622,13.631,2.88E+07
43148,78.555,19.522,14.573,2.71E+07
43149,78.252,21.942,14.035,3.37E+07
43150,77.116,20.41,12.556,3.02E+07
43151,84.352,27.367,12.957,2.25E+07
43152,86.102,26.04,14.53,2.06E+07
43153,81.96,23.79,14.422,2.57E+07
43154,85.303,24.351,13.044,1.89E+07
43155,83.169,23.62,12.084,1.96E+07
43156,84.695,23.296,14.719,1.98E+07
43157,83.406,25.018,17.287,2.90E+07
43158,-4.0838,44.196,104.22,2.22E+07
43159,-2.0616,46.566,103.71,2.96E+07
43160,-2.964,45.693,106.02,2.57E+07
43161,-3.1829,44.641,102.23,2.57E+07
43162,-6.8938,46.416,103.45,2.39E+07
43163,83.208,11.801,12.434,4.30E+07
43164,79.259,10.636,12.548,3.18E+07
43165,80.497,8.7858,13.302,4.30E+07
43166,81.564,11.075,13.11,3.80E+07
43167,-3.2243,45.055,85.621,3.50E+07
43168,-1.714,43.705,84.679,4.10E+07
43169,5.26E-02,44.191,88.083,3.74E+07
43170,-2.3257,41.04,87.255,4.14E+07
43171,-3.1215,42.454,88.846,3.71E+07
43172,-3.006,41.952,85.686,4.33E+07
43173,-0.73785,42.038,85.826,4.36E+07
43174,-1.1177,42.185,88.303,3.89E+07
43175,4.06E-02,43.706,85.714,3.96E+07
43176,-2.7541,44.627,88.255,3.59E+07
43177,1.4937,33.543,87.974,5.51E+07
43178,5.087,33.776,86.847,9.13E+07
43179,2.8768,35.243,90.436,6.22E+07
43180,3.2065,35.102,88.026,6.67E+07
43181,-1.4487,34.899,89.06,3.97E+07
43182,-9.03E-02,36.709,94.147,3.29E+07
43183,-6.55E-02,36.599,91.522,3.92E+07
43184,-2.1495,37.359,89.871,3.73E+07
43185,-2.9454,38.772,91.462,3.24E+07
43186,-0.94158,38.503,90.918,3.62E+07
43187,-1.1097,37.801,92.966,3.29E+07
43188,-3.0401,32.896,84.926,4.93E+07
43189,-3.2974,30.312,82.875,4.72E+07
43190,-4.0511,34.525,83.579,5.88E+07
43191,-3.6142,33.036,82.149,6.07E+07
43192,-4.3777,31.137,81.146,6.88E+07
43193,74.728,14.536,13.183,2.56E+07
43194,79.036,16.619,13.991,2.03E+07
43195,77.041,13.572,13.135,1.92E+07
43196,79.346,14.011,13.697,2.01E+07
43197,79.063,15.841,11.785,1.94E+07
43198,77.597,17.507,11.973,2.11E+07
43199,78.502,8.5054,17.215,2.60E+07
43200,1.2105,31.478,84.886,6.46E+07
43201,-1.2037,31.103,84.088,4.37E+07
43202,0.43659,35.387,88.601,4.69E+07
43203,0.76628,35.246,86.191,5.31E+07
43204,1.0691,33.234,83.495,6.43E+07
43205,-1.6474,36.147,86.95,4.45E+07
43206,-1.9574,35.316,84.792,4.90E+07
43207,-0.15104,35.793,83.9,5.29E+07
43208,-1.5205,33.827,83.362,5.35E+07
43209,0.95333,28.894,82.835,6.36E+07
43210,4.8038,31.711,83.76,1.02E+08
43211,3.2262,31.024,82.243,8.99E+07
43212,4.6318,28.886,81.212,1.24E+08
43213,2.4808,29.038,81.269,8.77E+07
43214,4.4827,40.069,80.429,6.39E+07
43215,3.4979,42.562,79.307,5.30E+07
43216,1.6688,41.869,77.698,5.10E+07
43217,2.3406,38.066,75.651,6.84E+07
43218,3.0937,37.708,77.463,7.17E+07
43219,2.1136,38.982,79.714,6.03E+07
43220,1.5223,39.155,77.321,5.76E+07
43221,3.1754,41.313,76.173,5.67E+07
43222,6.049,40.25,79.192,7.11E+07
43223,2.4084,40.831,79.312,5.71E+07
43224,70.061,12.912,14.799,4.76E+07
43225,70.38,11.801,12.821,3.45E+07
43226,73.133,10.629,13.048,1.97E+07
43227,74.496,12.388,13.269,2.08E+07
43228,71.731,10.449,14.297,2.70E+07
43229,72.703,-0.96112,12.151,6.27E+07
43230,72.909,2.2962,12.911,4.20E+07
43231,71.757,0.41261,13.357,4.51E+07
43232,74.729,2.5715,13.554,4.76E+07
43233,75.38,0.35064,13.956,6.22E+07
43234,74.014,-0.80291,14.014,6.15E+07
43235,-4.6506,25.704,74.333,1.22E+08
43236,-6.2761,28.013,73.178,1.65E+08
43237,-3.6135,28.148,74.409,1.12E+08
43238,-4.6912,26.564,76.593,9.37E+07
43239,-4.7764,29.856,74.989,1.12E+08
43240,-6.4097,30.927,75.091,1.24E+08
43241,-5.0074,29.275,77.068,1.01E+08
43242,0.81188,30.65,81.444,6.23E+07
43243,-2.2251,26.634,79.832,4.97E+07
43244,-1.7778,31.243,81.311,5.08E+07
43245,-0.84907,30.792,79.637,5.83E+07
43246,6.66E-02,28.663,80.47,6.30E+07
43247,-2.5413,29.344,80.307,5.59E+07
43248,70.453,-5.1861,11.725,7.71E+07
43249,69.758,-4.2025,13.311,6.14E+07
43250,70.179,-1.5465,13.062,4.93E+07
43251,68.913,-2.5756,11.975,5.37E+07
43252,72.436,-2.7621,13.719,6.60E+07
43253,1.7656,20.705,77.362,1.40E+08
43254,3.8899,22.708,77.213,1.46E+08
43255,2.4654,21.996,76.935,1.34E+08
43256,4.9751,32.759,78.881,1.15E+08
43257,6.3808,30.62,77.85,1.50E+08
43258,4.7352,34.044,77.035,1.11E+08
43259,4.8499,31.343,76.139,1.31E+08
43260,7.6259,30.395,76.459,1.91E+08
43261,-0.81968,30.651,72.221,1.23E+08
43262,0.14646,34.727,72.358,9.49E+07
43263,-1.9826,32.359,72.802,1.10E+08
43264,1.0144,31.668,73.275,1.16E+08
43265,-0.52138,33.225,74.21,9.40E+07
43266,65.897,5.2598,15.807,4.13E+07
43267,64.233,2.4987,18.05,4.14E+07
43268,63.909,3.1151,15.464,3.81E+07
43269,64.842,6.4763,18.711,6.60E+07
43270,78.266,5.3789,16.149,4.11E+07
43271,79.011,2.9115,18.693,4.86E+07
43272,76.212,3.5891,16.115,4.05E+07
43273,76.862,1.3683,16.517,5.45E+07
43274,67.985,7.8641,12.899,3.06E+07
43275,65.404,3.3349,13.131,2.46E+07
43276,69.335,6.5127,14.376,2.46E+07
43277,69.464,4.537,13.425,1.95E+07
43278,68.312,2.6534,13.871,1.88E+07
43279,-4.5336,25.336,71.954,1.65E+08
43280,-2.3479,21.49,70.762,1.94E+08
43281,-0.28888,22.907,72.39,1.62E+08
43282,-1.8709,25.471,73.185,1.31E+08
43283,-2.9486,23.887,75.369,1.08E+08
43284,-1.8047,21.957,75.085,1.33E+08
43285,-2.1447,24.257,70.684,1.85E+08
43286,-1.1049,23.247,74.658,1.25E+08
43287,69.086,-6.4684,13.18,7.14E+07
43288,67.167,-8.3285,12.159,7.76E+07
43289,66.534,-6.3075,11.751,6.56E+07
43290,68.241,-4.8414,11.844,6.33E+07
43291,70.338,-8.0025,9.3137,1.04E+08
43292,62.228,-8.693,11.508,6.39E+07
43293,59.305,-5.2791,10.941,3.61E+07
43294,60.226,-10.206,11.615,6.43E+07
43295,57.923,-6.9665,10.396,4.51E+07
43296,59.308,-7.8703,12.267,4.77E+07
43297,61.595,-6.672,11.1,5.22E+07
43298,58.378,-9.2957,10.746,5.87E+07
43299,59.625,-9.2012,8.8711,7.24E+07
43300,59.716,-7.046,8.7938,6.05E+07
43301,8.2685,33.663,53.674,3.17E+08
43302,8.4975,35.653,52.316,2.07E+08
43303,5.8911,33.975,53.691,2.11E+08
43304,66.472,-7.3449,13.745,6.17E+07
43305,65.827,-4.1303,14.86,3.59E+07
43306,68.812,-2.8288,14.517,4.32E+07
43307,65.839,-5.3239,13.337,5.00E+07
43308,67.546,-3.8578,13.43,4.78E+07
43309,71.069,-4.0443,15.174,6.01E+07
43310,63.739,0.57379,15.374,2.53E+07
43311,63.663,-1.4093,16.458,1.94E+07
43312,66.648,-0.10774,16.114,1.94E+07
43313,65.382,-1.1368,15.027,2.06E+07
43314,63.756,-9.5354,15.437,5.63E+07
43315,62.551,-10.719,12.831,6.87E+07
43316,61.632,-8.3823,13.483,5.12E+07
43317,63.92,-7.184,12.316,5.64E+07
43318,64.525,-10.783,14.311,6.88E+07
43319,-2.7893,26.06,53.42,2.83E+08
43320,-4.514,24.354,53.006,3.21E+08
43321,68.258,11.36,14.302,4.96E+07
43322,69.608,10.009,15.779,4.06E+07
43323,71.331,9.0771,12.551,2.07E+07
43324,69.928,8.8972,13.8,2.86E+07
43325,0.68537,27.399,63.529,3.12E+08
43326,-3.1595,26.602,61.312,3.42E+08
43327,-1.774,26.986,65.647,2.81E+08
43328,-2.2606,26.081,63.486,3.21E+08
43329,-1.2191,27.203,61.707,3.26E+08
43330,-3.4964,27.78,72.029,1.50E+08
43331,-4.6594,29.488,72.61,1.44E+08
43332,-3.7702,26.566,69.529,1.98E+08
43333,61.753,-11.049,15.544,5.70E+07
43334,60.835,-8.7127,16.196,3.97E+07
43335,63.728,-11.113,17.024,5.67E+07
43336,65.833,-11.114,18.998,5.69E+07
43337,-1.1194,28.519,55.738,2.75E+08
43338,2.0365,25.957,55.22,2.81E+08
43339,2.0113,27.877,56.27,2.91E+08
43340,1.8691,25.967,57.367,2.97E+08
43341,-8.52E-02,23.795,54.929,3.03E+08
43342,-2.3498,25.599,57.665,3.07E+08
43343,-0.16442,24.46,56.604,3.00E+08
43344,-0.4094,26.2,58.059,2.97E+08
43345,-2.2719,24.775,55.327,3.05E+08
43346,-3.6078,31.351,55.967,3.21E+08
43347,61.061,-0.59347,12.189,2.57E+07
43348,56.432,-3.242,12.782,3.44E+07
43349,57.325,-4.0646,11.045,3.04E+07
43350,58.709,-4.9683,12.915,2.78E+07
43351,60.985,-2.5765,13.272,2.43E+07
43352,60.997,-3.7701,11.749,3.06E+07
43353,58.844,-3.0264,13.563,2.72E+07
43354,59.118,-4.1441,9.4423,3.79E+07
43355,3.6806,20.302,68.722,2.68E+08
43356,0.74914,21.229,67.649,2.52E+08
43357,3.5048,19.589,66.553,2.90E+08
43358,2.8082,22.645,69.277,2.41E+08
43359,3.4117,24.408,65.452,3.18E+08
43360,3.2284,24.819,68.705,2.41E+08
43361,0.95239,23.995,67.57,2.41E+08
43362,0.46575,23.091,65.409,2.64E+08
43363,3.6756,21.099,65.153,3.06E+08
43364,1.5262,20.76,65.181,2.82E+08
43365,2.2837,22.335,64.106,2.95E+08
43366,47.615,-9.5582,16.105,3.80E+07
43367,42.971,-8.5472,16.573,5.94E+07
43368,45.176,-10.459,16.329,4.41E+07
43369,45.614,-7.8404,15.588,4.97E+07
43370,63.339,-0.7928,13.871,2.02E+07
43371,66.324,0.50872,13.528,2.21E+07
43372,63.351,-1.9864,12.348,2.47E+07
43373,65.058,-0.52029,12.441,2.40E+07
43374,2.201,16.642,68.21,2.68E+08
43375,1.1437,19.027,69.489,2.33E+08
43376,3.8993,17.387,68.393,2.78E+08
43377,3.2027,20.443,71.117,2.25E+08
43378,1.5818,17.954,49.986,3.34E+08
43379,4.113,18.008,52.378,3.33E+08
43380,2.9762,16.946,51.184,3.40E+08
43381,36.898,-20.597,15.428,1.55E+08
43382,38.472,-21.143,16.731,1.71E+08
43383,37.083,-18.986,17.445,1.43E+08
43384,37.207,-22.716,19.714,2.50E+08
43385,54.391,-15.634,9.7331,7.75E+07
43386,53.055,-13.58,9.2448,6.63E+07
43387,50.706,-15.742,8.248,7.11E+07
43388,50.708,-13.342,9.1692,5.76E+07
43389,52.467,-14.871,10.415,6.93E+07
43390,-46.707,-6.1893,71.869,3.96E+07
43391,-2.4028,16.416,49.803,3.44E+08
43392,0.49629,17.333,51.679,3.48E+08
43393,-0.26065,19.725,52.3,3.36E+08
43394,-1.9629,18.778,52.482,3.40E+08
43395,-1.2682,16.498,52.033,3.48E+08
43396,-2.7937,13.332,63.681,2.91E+08
43397,-2.2808,8.6845,59.934,3.15E+08
43398,-3.6385,7.7676,61.747,2.77E+08
43399,-2.211,11.297,59.838,3.15E+08
43400,-1.8602,7.1644,62.305,3.02E+08
43401,-0.92185,12.684,64.309,2.99E+08
43402,0.51814,11.339,62.946,2.97E+08
43403,-0.62141,10.239,61.253,3.09E+08
43404,-1.497,12.594,61.818,3.10E+08
43405,-0.26189,8.0177,61.477,3.00E+08
43406,-3.0891,11.366,64.538,2.86E+08
43407,54.056,-16.685,14.227,7.35E+07
43408,50.426,-17.183,15.52,7.23E+07
43409,53.121,-19.32,15.671,7.72E+07
43410,52.133,-15.921,14.909,6.59E+07
43411,3.196,9.3444,52.189,3.42E+08
43412,0.59117,10.383,52.225,3.66E+08
43413,0.20166,12.082,54.741,3.38E+08
43414,2.7241,13.05,55.131,3.40E+08
43415,2.2727,14.039,52.721,3.52E+08
43416,0.50822,13.204,53.074,3.48E+08
43417,2.4515,10.512,53.99,3.44E+08
43418,-4.865,12.382,51.294,3.05E+08
43419,-2.6899,11.752,50.505,3.57E+08
43420,-2.7729,14.573,51.354,3.42E+08
43421,4.3923,21.941,54.982,3.27E+08
43422,3.4788,16.398,56.481,3.33E+08
43423,3.0275,17.386,54.071,3.41E+08
43424,2.2706,19.779,54.692,3.24E+08
43425,2.1914,20.444,56.367,3.22E+08
43426,2.1514,18.191,56.497,3.29E+08
43427,4.1335,19.388,57.178,3.46E+08
43428,36.189,-5.6742,13.965,1.04E+08
43429,36.26,-8.134,13.596,9.44E+07
43430,35.345,-9.0456,16.304,1.07E+08
43431,37.398,-7.7577,15.666,9.73E+07
43432,33.578,-6.7732,14.828,1.11E+08
43433,26.092,-13.959,24.68,2.27E+08
43434,4.7223,-0.64999,59.961,1.94E+08
43435,3.1539,3.1658,58.193,2.72E+08
43436,2.459,-0.31393,58.835,2.43E+08
43437,1.0673,2.0323,58.676,2.83E+08
43438,2.8742,1.36,57.806,2.61E+08
43439,2.4691,3.7123,60.103,2.74E+08
43440,44.795,-18.334,10.288,7.43E+07
43441,44.071,-13.556,11.433,5.21E+07
43442,42.721,-17.138,11.062,7.73E+07
43443,46.865,-16.194,10.914,6.74E+07
43444,46.919,-16.586,13.692,7.21E+07
43445,44.854,-14.346,13.775,5.99E+07
43446,46.866,-13.794,11.836,5.67E+07
43447,44.67,-15.473,10.541,6.17E+07
43448,43.236,-16.363,13.21,7.71E+07
43449,42.355,-20.83,5.5287,7.76E+07
43450,42.381,-19.01,8.3699,7.62E+07
43451,43.553,-17.93,6.3907,6.24E+07
43452,46.525,-18.066,8.2223,6.93E+07
43453,44.33,-17.345,7.849,6.23E+07
43454,-50.059,-8.4804,60.82,5.23E+07
43455,-40.517,-5.7118,62.071,2.75E+07
43456,3.1192,-13.485,57.644,7.17E+07
43457,2.0649,-14.866,58.822,5.35E+07
43458,0.15908,-12.999,58.021,8.50E+07
43459,2.9125,-9.922,59.54,1.15E+08
43460,2.0568,-11.519,58.456,1.03E+08
43461,2.4583,-13.291,61.482,7.11E+07
43462,37.816,-6.6982,11.287,7.67E+07
43463,38.954,-6.322,13.357,8.03E+07
43464,39.864,-5.4839,11.084,7.12E+07
43465,37.2,-3.9589,9.5864,6.64E+07
43466,35.134,-5.3374,12.519,9.00E+07
43467,38.692,-3.3541,9.2188,7.29E+07
43468,4.588,-4.9446,59.434,1.47E+08
43469,3.89,-2.5366,58.784,1.93E+08
43470,36.748,-13.222,9.1752,8.01E+07
43471,38.454,-11.377,9.6471,7.11E+07
43472,38.447,-14.001,10.882,7.91E+07
43473,41.014,-12.123,9.1316,5.74E+07
43474,39.664,-15.705,8.7603,7.85E+07
43475,40.836,-14.625,6.781,6.34E+07
43476,41.613,-14.04,8.2393,5.77E+07
43477,40.179,-14.931,10.908,7.27E+07
43478,36.181,-11.003,10.446,8.12E+07
43479,36.175,-13.627,11.68,8.75E+07
43480,37.403,-16.802,13.148,1.04E+08
43481,38.619,-18.506,11.026,1.07E+08
43482,38.506,-19.743,14.21,1.24E+08
43483,39.134,-17.731,13.174,1.04E+08
43484,37.117,-17.585,14.925,1.13E+08
43485,-4.3869,2.738,60.755,2.56E+08
43486,-2.6086,2.1348,61.313,2.80E+08
43487,-1.0203,-1.0381,59.216,2.49E+08
43488,-3.5799,-0.98893,58.171,2.83E+08
43489,-2.4121,1.3081,59.057,2.90E+08
43490,-3.0829,-2.1611,60.129,2.40E+08
43491,-3.6206,-1.0956,62.005,2.38E+08
43492,-0.98583,3.6058,46.693,3.90E+08
43493,-3.4982,1.1052,46.754,3.84E+08
43494,1.1834,0.19054,46.344,3.03E+08
43495,-2.3073,-0.6748,45.81,2.69E+08
43496,-0.35186,-0.8583,46.312,2.72E+08
43497,-0.86644,1.0322,47.458,3.45E+08
43498,-2.6028,3.2646,47.843,3.85E+08
43499,4.9248,-11.767,55.024,9.53E+07
43500,4.7181,-8.2043,56.92,1.29E+08
43501,3.8624,-9.8012,55.836,1.20E+08
43502,4.3834,-7.8969,53.91,1.46E+08
43503,5.0829,-10.331,53.023,1.13E+08
43504,7.2147,-9.6696,52.891,1.40E+08
43505,2.3818,-15.523,56.342,5.93E+07
43506,0.47597,-13.657,55.541,8.70E+07
43507,4.021,-15.553,52.491,6.59E+07
43508,2.3737,-12.177,55.976,9.85E+07
43509,3.5941,-12.707,53.163,9.29E+07
43510,1.6969,-14.633,53.342,7.38E+07
43511,1.3484,-12.267,53.863,1.04E+08
43512,-0.57825,-15.037,56.719,7.17E+07
43513,0.64266,-16.014,54.521,6.24E+07
43514,-4.259,-14.38,53.543,9.14E+07
43515,-3.2967,-17.537,49.937,8.98E+07
43516,-3.0381,-15.356,51.345,8.90E+07
43517,-5.2738,-13.435,51.688,1.16E+08
43518,-5.1954,-13.039,49.498,1.25E+08
43519,-4.4087,-15.129,49.259,1.08E+08
43520,-7.0331,-17.12,49.555,1.09E+08
43521,-2.5099,-10.677,57.223,1.29E+08
43522,-0.5864,-11.691,56.353,1.12E+08
43523,-1.2632,-14.147,53.719,8.85E+07
43524,-3.4989,-12.226,54.062,1.19E+08
43525,-3.2757,-10.109,54.971,1.59E+08
43526,-1.6117,-11.781,54.24,1.19E+08
43527,-4.0311,-13.493,57.996,7.53E+07
43528,5.7434,-17.683,36.048,7.16E+07
43529,7.144,-17.824,38.244,7.15E+07
43530,2.0233,-18.224,49.262,6.55E+07
43531,-3.132,-18.598,46.784,9.74E+07
43532,1.9123,-18.571,46.877,6.96E+07
43533,-0.81225,-18.354,46.08,9.09E+07
43534,-0.30086,-17.304,50.113,7.37E+07
43535,0.41464,-16.808,47.803,7.48E+07
43536,-1.6715,-17.077,48.027,9.18E+07
43537,4.8923,-14.31,36.726,7.06E+07
43538,5.1974,-11.698,39.762,8.49E+07
43539,6.2929,-14.452,38.922,8.11E+07
43540,3.7626,-12.933,38.4,7.81E+07
43541,4.4703,-9.9742,38.294,9.62E+07
43542,8.2821,4.3124,45.417,3.87E+08
43543,1.1325,7.9741,51.849,3.57E+08
43544,3.3769,5.8473,54.094,3.16E+08
43545,3.8477,4.2663,51.809,3.06E+08
43546,1.8189,5.7441,52.083,3.51E+08
43547,2.9928,8.1035,53.614,3.35E+08
43548,4.4951,-17.309,47.433,6.03E+07
43549,4.1791,-14.116,50.49,8.01E+07
43550,2.2819,-16.043,50.67,6.93E+07
43551,2.9974,-15.547,48.359,6.87E+07
43552,-47.354,-8.5431,57.151,5.60E+07
43553,-46.613,-7.4538,58.953,2.92E+07
43554,-43.359,-5.7296,59.218,2.74E+07
43555,-6.2514,-19.693,43.738,1.25E+08
43556,-4.6617,-16.043,42.245,1.19E+08
43557,-3.3848,-17.466,44.159,1.07E+08
43558,-5.315,-14.722,44.356,1.39E+08
43559,-4.244,-16.19,46.105,1.11E+08
43560,-7.3439,-17.641,44.717,1.29E+08
43561,-6.8684,-18.18,46.402,1.19E+08
43562,39.775,-21.916,-3.8736,1.22E+08
43563,37.948,-19.213,-5.8079,1.54E+08
43564,-1.1295,7.3176,49.732,4.04E+08
43565,-0.44307,5.0877,49.966,3.98E+08
43566,-0.6672,3.0491,48.344,3.73E+08
43567,-2.4035,5.2816,48.73,4.23E+08
43568,-7.3232,-1.064,46.164,3.03E+08
43569,-6.1484,-2.1584,47.975,2.87E+08
43570,-4.3088,-1.2146,49.316,3.44E+08
43571,-4.8904,0.94145,50.037,4.03E+08
43572,-4.6204,-1.1584,46.757,3.04E+08
43573,-3.1796,0.54857,48.405,3.71E+08
43574,-4.9159,2.781,48.791,4.10E+08
43575,-31.503,-3.9181,51.382,8.58E+07
43576,-5.2086,-18.026,41.121,1.17E+08
43577,-4.8792,-20.129,40.009,1.07E+08
43578,-3.9317,-19.449,43.035,1.10E+08
43579,3.755,0.19466,49.343,2.69E+08
43580,3.6343,-4.1967,46.927,1.91E+08
43581,3.2044,-2.5046,48.598,2.32E+08
43582,3.3967,-2.7348,45.172,2.10E+08
43583,2.0166,-2.2566,46.85,2.26E+08
43584,1.502,-0.36611,47.995,2.90E+08
43585,-7.1002,-4.4183,43.295,2.20E+08
43586,-7.6602,-3.8441,46.438,2.48E+08
43587,-9.6732,-3.3428,42.441,2.96E+08
43588,-6.1323,-2.844,45.22,2.28E+08
43589,-11.334,-2.4026,45.858,4.12E+08
43590,-6.8317,-4.8321,45.305,2.16E+08
43591,-3.8968,-11.037,38.447,1.44E+08
43592,-5.8862,-9.4497,38.494,2.01E+08
43593,-2.0396,-7.5087,36.63,1.48E+08
43594,-4.7701,-6.893,39.614,1.68E+08
43595,-6.3655,-7.6082,37.863,2.15E+08
43596,-2.718,-8.8815,39.024,1.42E+08
43597,-3.9322,-4.8328,37.947,1.45E+08
43598,-48.621,-6.6681,54.372,2.23E+07
43599,-43.216,-3.6967,50.102,7.65E+07
43600,-34.838,-4.8321,47.868,5.68E+07
43601,35.215,-5.8815,-12.272,1.37E+08
43602,31.903,-6.9837,-16.392,1.19E+08
43603,33.299,-8.0975,-17.2,1.25E+08
43604,-36.211,-6.868,45.023,5.78E+07
43605,-36.313,-6.8283,41.014,7.43E+07
43606,-33.641,-8.5074,43.178,1.27E+08
43607,-35.523,-8.7558,41.752,1.23E+08
43608,37.491,-3.235,-9.959,1.76E+08
43609,37.497,-17.726,-24.896,1.12E+08
43610,32.504,-12.046,-44.213,5.43E+07
43611,30.212,-9.9311,-45.874,6.75E+07
43612,31.178,-6.7925,-44.855,9.41E+07
43613,29.997,-8.5109,-43.886,8.72E+07
43614,31.089,-10.469,-42.359,6.97E+07
43615,32.43,-11.257,-46.672,4.87E+07
43616,30.151,-12.584,-46.405,5.64E+07
43617,31.028,-13.122,-42.89,5.79E+07
43618,32.369,-13.91,-47.203,3.76E+07
43619,25.683,-10.82,-49.465,7.36E+07
43620,27.644,-9.0496,-46.078,8.87E+07
43621,28.736,-11.007,-44.551,7.10E+07
43622,26.119,-12.004,-47.217,7.06E+07
43623,26.434,-10.954,-45.018,8.08E+07
43624,25.7,-9.8598,-46.295,8.96E+07
43625,27.205,-8.7827,-48.369,8.80E+07
43626,30.077,-11.796,-48.864,5.14E+07
43627,27.817,-11.227,-49.95,6.20E+07
43628,31.221,-5.4043,-19.943,1.24E+08
43629,30.824,-7.3742,-21.411,1.20E+08
43630,31.647,-7.7335,-19.44,1.22E+08
43631,29.757,-4.5215,-18.936,1.12E+08
43632,-35.795,-7.9486,30.12,1.46E+08
43633,-34.432,-6.3287,25.996,1.82E+08
43634,-32.167,-7.1005,26.634,1.80E+08
43635,28.61,-5.911,-45.059,1.15E+08
43636,27.255,-4.3773,-45.573,1.41E+08
43637,28.171,-5.6441,-47.35,1.13E+08
43638,31.793,-6.1588,-22.721,1.32E+08
43639,32.616,-6.5181,-20.751,1.33E+08
43640,30.726,-3.3061,-20.247,1.26E+08
43641,24.901,-6.7346,-29.888,1.37E+08
43642,25.956,-6.719,-26.893,1.32E+08
43643,27.519,-7.6096,-41.47,1.12E+08
43644,28.611,-9.5673,-39.943,9.46E+07
43645,25.619,-7.5032,-38.131,1.28E+08
43646,26.309,-9.5139,-40.41,1.04E+08
43647,27.335,-7.4525,-36.829,1.31E+08
43648,24.862,-7.2762,-40.564,1.27E+08
43649,17.664,-11.29,-31.013,1.26E+08
43650,19.962,-13.727,-33.125,1.11E+08
43651,17.293,-14.741,-34.983,1.06E+08
43652,17.561,-12.367,-33.333,1.19E+08
43653,16.014,-15.051,-33.635,1.11E+08
43654,29.868,-13.347,-24.962,1.13E+08
43655,30.221,-12.645,-23.278,1.19E+08
43656,29.699,-10.371,-24.416,1.22E+08
43657,26.871,-10.521,-25.005,1.23E+08
43658,21.795,-5.0126,-50.819,1.62E+08
43659,23.548,-8.986,-51.494,9.63E+07
43660,22.402,-7.1038,-49.815,1.24E+08
43661,21.783,-7.5425,-52.708,1.11E+08
43662,25.07,-6.9485,-50.399,1.09E+08
43663,-36.75,-6.3151,35.639,9.33E+07
43664,11.952,6.0551,-53.383,2.56E+08
43665,12.602,7.1224,-51.835,2.45E+08
43666,17.924,-9.2126,-32.934,1.26E+08
43667,20.83,-8.2973,-30.985,1.31E+08
43668,19.955,-14.024,-36.696,1.01E+08
43669,20.222,-11.65,-35.046,1.14E+08
43670,21.959,-12.677,-37.547,1.03E+08
43671,23.128,-10.735,-33.097,1.20E+08
43672,23.126,-10.213,-36.125,1.23E+08
43673,24.985,-13.938,-33.717,9.63E+07
43674,18.578,-3.3712,-51.779,1.98E+08
43675,20.608,-5.3151,-48.509,1.73E+08
43676,19.988,-5.7538,-51.402,1.59E+08
43677,17.592,-3.7786,-49.361,1.97E+08
43678,17.952,-5.5292,-50.681,1.71E+08
43679,18.029,-2.8733,-47.868,2.10E+08
43680,18.566,-5.9011,-53.668,1.52E+08
43681,16.169,-3.9259,-51.627,1.88E+08
43682,16.529,-5.6765,-52.947,1.66E+08
43683,14.515,-3.7145,-53.258,1.93E+08
43684,15.591,-1.5297,-53.906,2.24E+08
43685,8.805,-9.2666,-51.272,1.35E+08
43686,8.9842,-11.578,-52.02,1.33E+08
43687,7.8912,-7.9691,-53.248,1.56E+08
43688,9.9518,-8.4533,-54.724,1.53E+08
43689,10.572,-9.3397,-52.107,1.36E+08
43690,8.2499,-10.625,-50.984,1.29E+08
43691,11.198,3.9207,-47.348,2.28E+08
43692,11.158,1.1309,-46.886,2.19E+08
43693,9.7977,-0.53654,-45.74,1.88E+08
43694,8.7957,2.2107,-47.183,2.23E+08
43695,5.3414,-16.288,-36.115,1.07E+08
43696,6.7229,-17.874,-37.316,1.08E+08
43697,9.591,1.5353,-52.687,2.68E+08
43698,12.071,4.3602,-51.011,2.56E+08
43699,12.031,1.5704,-50.55,2.50E+08
43700,12.724,1.8761,-53.163,2.68E+08
43701,9.6691,2.6502,-50.846,2.63E+08
43702,11.813,-14.695,-43.045,9.60E+07
43703,11.712,-13.425,-40.427,1.01E+08
43704,9.2211,-14.576,-40.295,9.93E+07
43705,9.7721,-17.195,-41.28,7.98E+07
43706,7.8858,-15.816,-41.621,1.04E+08
43707,8.9643,-16.386,-39.881,9.57E+07
43708,10.868,-15.196,-39.393,9.70E+07
43709,-33.638,-35.96,9.2524,1.09E+08
43710,4.4391,-11.7,-38.056,9.89E+07
43711,4.7935,-13.422,-38.844,1.12E+08
43712,6.5025,-13.404,-37.85,1.03E+08
43713,6.2458,-15.213,-37.436,9.96E+07
43714,-14.612,8.8104,-53.303,2.13E+08
43715,-16.007,8.2969,-54.473,2.03E+08
43716,-5.1216,-3.057,-57.565,2.81E+08
43717,-3.9261,-4.7798,-56.216,2.41E+08
43718,-5.9943,-4.8694,-54.394,2.12E+08
43719,-2.7178,-2.8329,-56.518,2.85E+08
43720,-2.8565,-0.78659,-55.327,2.92E+08
43721,-11.808,-5.3631,-53.398,1.76E+08
43722,-10.703,-0.84769,-50.57,2.31E+08
43723,-7.888,-3.8422,-51.754,2.01E+08
43724,-8.645,-1.9764,-49.109,2.07E+08
43725,-8.4326,-0.14338,-51.267,2.36E+08
43726,-11.113,-3.2664,-49.754,2.25E+08
43727,-10.115,-5.4779,-50.357,1.90E+08
43728,-9.0263,-3.9438,-49.93,1.96E+08
43729,-11.512,-1.2327,-53.028,2.21E+08
43730,-9.3242,-0.27789,-52.77,2.43E+08
43731,-11.806,-7.8915,-51.773,1.59E+08
43732,-13.408,-9.1659,-52.639,1.52E+08
43733,-2.8738,-6.2992,-37.829,6.78E+07
43734,-4.8037,-10.53,-37.364,7.14E+07
43735,-4.2821,-8.5119,-38.235,7.06E+07
43736,-1.8132,-7.6395,-39.169,7.89E+07
43737,1.11,-8.3309,-50.374,1.69E+08
43738,0.17531,-6.4822,-54.07,2.13E+08
43739,2.2517,-6.1166,-52.208,1.97E+08
43740,4.5078,-6.9333,-52.912,1.86E+08
43741,0.1396,-6.6985,-51.759,1.87E+08
43742,-7.0893,-14.153,-40.38,9.96E+07
43743,-8.5784,-15.693,-42.404,1.03E+08
43744,-12.853,-12.005,-39.246,8.09E+07
43745,-14.114,-12.751,-42.472,8.77E+07
43746,-15.09,-11.652,-38.43,1.11E+08
43747,-15.85,-12.036,-40.494,9.23E+07
43748,-12.876,-13.447,-40.708,7.52E+07
43749,-12.434,-14.745,-41.358,6.86E+07
43750,-16.783,-14.947,-39.185,1.02E+08
43751,-6.2099,-4.3209,-38.674,8.13E+07
43752,-7.6183,-6.5335,-39.08,8.45E+07
43753,-10.048,-7.3518,-38.122,8.55E+07
43754,-9.6048,-5.3471,-40.418,1.05E+08
43755,-11.387,-5.887,-39.151,9.10E+07
43756,-27.136,-7.4184,-30.04,1.88E+08
43757,-25.227,-8.3039,-30.176,2.12E+08
43758,-26.444,-6.0733,-32.938,2.20E+08
43759,-22.486,-6.5933,-35.406,2.52E+08
43760,-24.535,-6.9588,-33.073,2.41E+08
43761,-33.9,-6.9963,-24.388,1.26E+08
43762,-31.809,-7.7263,-25.588,1.45E+08
43763,-29.298,-7.8906,-23.108,1.52E+08
43764,-30.648,-8.9562,-24.135,1.75E+08
43765,-34.641,-7.8277,-25.951,1.26E+08
43766,-39.317,-7.3007,-24.601,8.35E+07
43767,-34.08,-9.3604,-41.284,4.33E+07
43768,-32.763,-8.7441,-37.673,8.77E+07
43769,-32.801,-6.1584,-36.739,1.01E+08
43770,-29.972,-7.7431,-34.046,1.46E+08
43771,-43.142,-5.9642,-26.134,4.78E+07
43772,-42.42,-5.1563,-28.87,4.51E+07
43773,-30.613,-7.9633,-29.488,1.60E+08
43774,-31.389,-9.7876,-25.698,1.73E+08
43775,-34.298,-6.7851,-38.145,7.05E+07
43776,-41.031,-3.8922,-43.789,1.10E+07
43777,-40.403,-5.2223,-43.813,1.14E+07
43778,-40.523,-5.1413,-48.078,5.05E+06
43779,-44.493,-2.5823,-40.446,1.28E+07
43780,-41.966,-4.4101,-41.39,1.55E+07
43781,-56.519,-6.1007,-56.363,1.96E+06
43782,-60.112,-6.1769,-56.995,1.80E+06
43783,-56.988,-7.3585,-45.158,4.98E+06
43784,-53.019,-7.882,-48.793,5.75E+06
43785,-53.771,-8.5065,-46.886,6.17E+06
43786,-4.6206,-5.304,-42.154,1.07E+08
43787,-4.5934,-6.2336,-39.836,8.28E+07
43788,-2.1244,-5.3613,-40.771,9.05E+07
43789,2.876,-8.7419,-46.512,1.45E+08
43790,1.4887,-6.0388,-49.611,1.80E+08
43791,-0.35837,-7.4774,-44.944,1.30E+08
43792,1.3223,-6.2993,-46.747,1.52E+08
43793,1.7757,-7.1862,-45.007,1.32E+08
43794,-1.1853,-6.4403,-47.174,1.57E+08
43795,-0.62335,-6.6207,-49.162,1.72E+08
43796,0.46067,-5.0753,-48.332,1.73E+08
43797,4.7094,-9.5014,-42.562,1.18E+08
43798,1.4751,-8.2369,-40.994,1.02E+08
43799,4.3683,-11.494,-40.665,1.13E+08
43800,6.0774,-11.476,-39.671,1.04E+08
43801,3.6092,-7.9458,-41.057,1.06E+08
43802,5.7499,-9.3412,-40.492,1.08E+08
43803,7.8926,-9.1699,-45.146,1.33E+08
43804,7.1876,-8.6417,-47.074,1.36E+08
43805,5.0637,-11.224,-43.35,1.30E+08
43806,3.8512,-6.7881,-45.482,1.39E+08
43807,4.3046,-7.675,-43.742,1.23E+08
43808,6.4454,-9.0704,-43.178,1.25E+08
43809,5.8771,-7.1689,-44.975,1.37E+08
43810,6.019,-10.615,-45.363,1.43E+08
43811,6.6324,-10,-46.787,1.31E+08
43812,-13.675,-5.581,-46.609,2.26E+08
43813,-12.677,-7.7925,-47.213,1.99E+08
43814,-12.608,-6.826,-44.306,1.79E+08
43815,-14.311,-9.5772,-45.236,1.76E+08
43816,-16.047,-8.8614,-43.258,1.48E+08
43817,-14.39,-7.3659,-43.039,1.54E+08
43818,-14.279,-9.0669,-48.079,1.95E+08
43819,-15.089,-5.7068,-44.595,2.22E+08
43820,-6.6144,-3.7952,-45.555,1.67E+08
43821,-6.0289,-7.5167,-42.559,1.12E+08
43822,-3.56,-6.6444,-43.494,1.22E+08
43823,-8.0844,-7.2967,-46.804,1.62E+08
43824,-8.0155,-6.3302,-43.897,1.38E+08
43825,-4.3869,-5.6073,-45.724,1.48E+08
43826,-6.9957,-5.7626,-46.377,1.62E+08
43827,-7.5325,-8.2148,-43.903,1.28E+08
43828,-6.5233,-10.464,-39.372,8.42E+07
43829,-8.9529,-11.282,-38.414,8.26E+07
43830,-8.9758,-12.724,-39.876,8.12E+07
43831,-8.0269,-11.162,-40.716,9.42E+07
43832,-8.2312,-12.158,-36.369,8.91E+07
43833,-8.534,-14.022,-40.527,8.07E+07
43834,-9.2308,0.12539,-47.695,2.24E+08
43835,-12.111,2.5011,-51.189,2.49E+08
43836,-9.0184,1.9584,-49.854,2.54E+08
43837,-11.699,-1.1646,-48.34,2.43E+08
43838,-11.334,0.7246,-46.746,2.47E+08
43839,-12.097,0.86907,-51.614,2.42E+08
43840,-9.91,1.8239,-51.357,2.61E+08
43841,0.55406,-4.1901,-53.307,2.27E+08
43842,-3.5904,-4.6453,-53.347,2.17E+08
43843,-1.661,-2.5094,-53.978,2.51E+08
43844,-1.558,-4.772,-52.858,2.16E+08
43845,8.3121,-1.4367,-54.412,2.64E+08
43846,10.369,-3.2807,-54.24,2.24E+08
43847,8.0031,-4.0544,-54.431,2.26E+08
43848,10.064,-4.5385,-55.908,2.20E+08
43849,12.226,-9.4873,-38.59,1.11E+08
43850,10.556,-6.6444,-39.392,1.18E+08
43851,12.654,-7.0608,-39.014,1.21E+08
43852,9.7345,-10.639,-38.458,1.08E+08
43853,9.4071,-8.5039,-39.28,1.12E+08
43854,13.299,-8.7601,-37.417,1.15E+08
43855,11.381,-11.258,-37.557,1.06E+08
43856,13.115,-12.624,-47.25,1.10E+08
43857,15.733,-14.502,-45.279,9.06E+07
43858,13.224,-12.148,-42.347,1.08E+08
43859,11.853,-11.264,-45.005,1.19E+08
43860,14.726,-10.944,-45.027,1.18E+08
43861,15.907,-12.772,-47.4,9.84E+07
43862,15.66,-11.984,-43.386,1.08E+08
43863,12.504,-14.6,-46.722,9.28E+07
43864,11.114,-14.563,-45.292,9.10E+07
43865,14.404,-9.8321,-50.693,1.28E+08
43866,11.642,-10.469,-47.291,1.24E+08
43867,10.937,-9.9412,-49.219,1.29E+08
43868,11.116,-12.252,-49.967,1.25E+08
43869,14.515,-10.15,-47.313,1.22E+08
43870,15.697,-11.977,-49.686,1.06E+08
43871,12.293,-13.805,-49.008,1.01E+08
43872,12.705,-10.014,-50.054,1.30E+08
43873,10.382,-11.3,-48.931,1.22E+08
43874,21.584,-12.358,-52.514,7.52E+07
43875,19.819,-10.915,-53.728,9.24E+07
43876,19.075,-12.835,-52,8.38E+07
43877,19.565,-14.076,-45.835,8.28E+07
43878,17.133,-12.028,-45.342,1.04E+08
43879,18.315,-13.855,-47.715,8.49E+07
43880,18.068,-13.068,-43.701,9.42E+07
43881,15.204,-12.957,-39.142,1.04E+08
43882,17.554,-12.664,-36.904,1.08E+08
43883,19.29,-13.691,-39.405,9.79E+07
43884,17.641,-12.793,-40.181,1.04E+08
43885,16.278,-12.23,-37.969,1.07E+08
43886,16.007,-15.348,-37.206,9.81E+07
43887,14.36,-14.728,-38.108,9.88E+07
43888,-29.656,-5.6494,28.354,1.91E+08
43889,-35.785,-7.0553,39.287,9.28E+07
43890,22.361,-9.2885,-49.185,1.06E+08
43891,21.742,-9.7271,-52.077,9.40E+07
43892,22.248,-11.868,-48.47,8.33E+07
43893,23.943,-12.355,-48.616,7.47E+07
43894,20.998,-11.648,-50.35,8.65E+07
43895,23.524,-10.21,-47.694,9.19E+07
43896,25.029,-9.1332,-49.768,9.12E+07
43897,25.642,-11.577,-51.349,6.72E+07
43898,-20.089,-6.7284,31.935,2.54E+08
43899,-11.929,-4.181,37.26,3.52E+08
43900,-10.702,-2.9239,38.683,3.46E+08
43901,-14.43,-5.8785,39.265,3.48E+08
43902,-13.203,-4.6213,40.688,3.40E+08
43903,-15.342,-7.2505,42.507,3.50E+08
43904,32.088,-13.377,-23.597,1.13E+08
43905,33.678,-12.173,-25.335,1.07E+08
43906,31.566,-11.104,-24.735,1.18E+08
43907,31.786,-14.044,-27.702,1.07E+08
43908,34.03,-11.472,-23.652,1.11E+08
43909,31.919,-10.402,-23.051,1.22E+08
43910,32.742,-10.762,-21.08,1.23E+08
43911,33.508,-9.1982,-24.789,1.17E+08
43912,34.331,-9.5575,-22.819,1.17E+08
43913,-33.114,-8.7344,41.451,1.44E+08
43914,-45.465,-7.8492,56.51,4.25E+07
43915,-46.142,-9.7053,52.701,8.71E+07
43916,-3.2895,-16.479,38.516,1.04E+08
43917,-2.3419,-15.799,41.542,1.05E+08
43918,-1.0281,-16.18,39.99,9.24E+07
43919,-0.9599,-14.119,39.587,9.67E+07
43920,-5.6082,-12.788,39.675,1.78E+08
43921,-4.2721,-13.054,41.739,1.43E+08
43922,-2.44,-12.22,40.205,1.18E+08
43923,-2.0017,-13.496,41.647,1.06E+08
43924,-2.0126,-17.902,40.429,9.16E+07
43925,-0.69874,-18.283,38.878,8.66E+07
43926,-3.8349,-19.404,35.871,1.09E+08
43927,5.359,-16.757,38.393,6.17E+07
43928,2.7605,-17.3,38.275,7.03E+07
43929,2.8287,-15.239,37.871,6.53E+07
43930,4.0223,7.2354,57.297,2.83E+08
43931,3.9108,12.03,57.957,3.02E+08
43932,4.1176,11.103,60.675,2.90E+08
43933,2.978,10.003,58.982,2.94E+08
43934,3.6383,9.4916,56.816,3.04E+08
43935,6.762,9.258,59.31,2.27E+08
43936,3.3375,7.7818,59.207,2.86E+08
43937,5.5719,-17.277,42.818,5.94E+07
43938,1.6595,-17.439,44.251,6.95E+07
43939,2.9734,-17.82,42.7,6.59E+07
43940,2.8864,-15.894,45.974,6.54E+07
43941,6.6269,-16.216,44.089,8.23E+07
43942,3.8826,-16.323,44.124,6.10E+07
43943,3.5924,-2.1608,55.913,2.18E+08
43944,3.9557,-4.2614,53.552,1.85E+08
43945,4.7581,-0.26199,52.986,2.39E+08
43946,4.2075,-2.9612,52.241,2.03E+08
43947,4.0075,-0.48687,54.884,2.33E+08
43948,2.9857,-1.6661,53.788,2.40E+08
43949,36.972,-10.07,13.626,8.49E+07
43950,37.88,-11.782,12.152,7.85E+07
43951,39.025,-8.7817,12.988,7.41E+07
43952,40.447,-9.904,10.402,5.78E+07
43953,39.935,-7.9436,10.715,6.50E+07
43954,35.205,-7.7971,12.15,8.35E+07
43955,0.24352,-7.5998,58.742,1.61E+08
43956,2.167,-8.6135,57.873,1.39E+08
43957,2.3247,-4.6086,58.308,1.98E+08
43958,2.688,-6.7092,55.947,1.64E+08
43959,0.97235,-6.4241,57.088,1.85E+08
43960,0.2622,-5.7316,59.22,1.88E+08
43961,36.966,-12.694,14.86,8.86E+07
43962,38.11,-9.6933,15.696,8.62E+07
43963,36.68,-13.478,16.638,9.08E+07
43964,-1.5449,15.832,65.231,2.85E+08
43965,-3.4993,18.118,62.191,3.10E+08
43966,-2.6023,18.217,66.509,2.63E+08
43967,-2.12,15.742,62.74,2.98E+08
43968,-1.8252,17.748,64.041,2.89E+08
43969,-5.0435,16.943,63.959,2.96E+08
43970,-3.7121,14.514,65.46,2.78E+08
43971,58.256,-13.972,12.378,7.23E+07
43972,58.306,-12.193,13.878,6.07E+07
43973,59.63,-9.8957,13.59,5.18E+07
43974,60.555,-14.12,14.557,7.00E+07
43975,58.701,-11.321,12.068,6.36E+07
43976,62.523,-12.296,14.418,6.93E+07
43977,59.948,-11.227,10.194,7.72E+07
43978,62.727,-13.792,13.703,7.67E+07
43979,56.013,-13.934,13.319,6.40E+07
43980,54.628,-13.658,11.331,6.46E+07
43981,58.263,-15.861,13.998,7.33E+07
43982,54.039,-14.949,12.501,6.81E+07
43983,56.408,-13.061,11.509,6.61E+07
43984,4.5951,27.353,55.749,3.35E+08
43985,4.4529,25.444,56.846,3.38E+08
43986,2.4986,23.272,54.409,3.06E+08
43987,2.4194,23.936,56.083,3.04E+08
43988,4.3615,22.881,56.895,3.34E+08
43989,54.01,-6.4305,13.954,3.13E+07
43990,52.437,-7.5975,12.507,3.43E+07
43991,54.904,-7.2532,12.217,3.49E+07
43992,54.964,-10.455,14.376,4.21E+07
43993,51.658,-9.5908,14.028,3.69E+07
43994,56.288,-8.1569,14.088,3.56E+07
43995,53.578,-10.179,12.388,4.40E+07
43996,52.99,-11.47,13.558,4.56E+07
43997,55.359,-9.5824,12.566,4.50E+07
43998,52.583,-5.2738,12.528,3.86E+07
43999,55.05,-4.9294,12.238,3.31E+07
44000,56.434,-5.8331,14.108,2.87E+07
44001,56.568,-3.8913,14.756,3.36E+07
44002,9.9698,29.016,67.04,5.51E+08
44003,9.9022,30.01,69.125,4.35E+08
44004,-4.2076,42.38,75.014,3.74E+07
44005,-1.6373,44.009,75.367,3.34E+07
44006,-0.13066,43.453,73.842,3.52E+07
44007,5.8114,37.113,83.488,8.72E+07
44008,4.3596,35.48,85.065,8.47E+07
44009,4.6624,33.467,82.369,9.79E+07
44010,3.4423,36.026,82.774,7.67E+07
44011,4.3979,42.565,81.968,5.12E+07
44012,3.9309,38.439,84.667,6.42E+07
44013,3.0136,38.985,82.376,6.07E+07
44014,3.105,40.337,83.996,5.66E+07
44015,3.8835,42.005,83.884,5.39E+07
44016,6.949,40.253,81.854,7.35E+07
44017,3.3085,40.834,81.973,5.59E+07
44018,0.70878,37.607,98.17,3.27E+07
44019,2.1202,39.33,97.005,4.14E+07
44020,1.7949,37.197,93.688,4.54E+07
44021,2.07E-03,38.877,96.61,3.18E+07
44022,0.75076,38.4,95.132,3.65E+07
44023,2.5171,44.038,91.374,4.23E+07
44024,2.5481,42.26,95.516,4.32E+07
44025,4.9194,43.046,92.894,5.36E+07
44026,2.2228,40.126,92.198,4.76E+07
44027,0.26657,43.55,93.539,3.58E+07
44028,0.42999,41.806,95.12,3.48E+07
44029,1.3468,42.031,91.594,4.18E+07
44030,1.3625,45.021,92.882,3.81E+07
44031,1.1787,41.329,93.642,3.94E+07
44032,1.584,44.366,79.237,4.21E+07
44033,1.1441,44.497,81.727,4.14E+07
44034,2.8987,44.498,82.762,4.15E+07
44035,3.0906,43.81,77.712,4.65E+07
44036,2.3237,43.327,80.851,4.57E+07
44037,75.446,9.6649,13,2.20E+07
44038,72.681,7.7258,14.027,1.97E+07
44039,76.684,7.8151,13.754,2.99E+07
44040,72.81,5.75,13.077,2.52E+07
44041,74.63,6.0253,13.72,2.94E+07
44042,-2.6352,45.286,83.55,3.68E+07
44043,-3.6754,46.208,87.126,3.13E+07
44044,-2.8155,42.044,77.275,4.37E+07
44045,-4.557,38.504,77.488,5.90E+07
44046,-4.1808,40.409,78.741,5.16E+07
44047,-2.9619,39.33,76.898,4.92E+07
44048,85.368,17.958,11.326,2.99E+07
44049,84.934,17.928,13.412,2.52E+07
44050,84.055,16.307,12.224,2.97E+07
44051,82.102,18.188,13.194,2.01E+07
44052,81.799,20.608,12.655,1.88E+07
44053,85.142,21.17,11.277,2.26E+07
44054,83.008,20.439,10.317,2.06E+07
44055,82.129,17.41,10.987,2.38E+07
44056,80.663,19.076,11.176,1.84E+07
44057,84.533,20.114,12.952,2.14E+07
44058,86.897,17.029,13.285,3.34E+07
44059,86.018,15.407,12.097,3.89E+07
44060,87.104,20.27,11.15,2.92E+07
44061,89.238,16.936,12.787,4.14E+07
44062,86.496,19.215,12.824,2.71E+07
44063,88.517,17.554,9.2652,4.42E+07
44064,7.6099,49.581,86.987,2.63E+07
44065,-1.1418,36.462,104,1.28E+07
44066,-2.9576,38.16,105.51,9.27E+06
44067,-1.8915,37.84,101.82,1.65E+07
44068,-3.4848,40.006,103.97,1.40E+07
44069,-1.5903,38.684,103.89,1.64E+07
44070,-2.5839,40.452,101.98,1.83E+07
44071,-0.66898,36.848,105.9,1.45E+07
44072,2.6478,36.905,104.41,2.99E+07
44073,0.39714,36.528,102.21,2.14E+07
44074,1.4677,36.481,106.23,2.15E+07
44075,0.69838,37.373,104.29,2.19E+07
44076,86.726,28.185,12.499,1.87E+07
44077,84.927,29.952,9.0295,1.81E+07
44078,85.927,26.497,11.013,1.73E+07
44079,86.735,31.171,11.17,1.95E+07
44080,92.209,28.592,11.91,2.30E+07
44081,90.346,28.942,13.956,2.04E+07
44082,92.513,28.055,14.316,2.18E+07
44083,93.55,32.272,13.147,2.34E+07
44084,93.849,29.921,13.911,2.23E+07
44085,90.355,31.927,12.626,1.95E+07
44086,90.339,26.508,12.027,2.14E+07
44087,92.505,25.621,12.387,2.61E+07
44088,89.54,24.82,10.541,2.47E+07
44089,93.842,27.487,11.982,2.59E+07
44090,-3.7486,6.2686,58.923,2.91E+08
44091,-4.1067,8.7297,55.287,3.00E+08
44092,-1.9316,8.099,54.497,3.54E+08
44093,-2.3211,9.7983,57.013,3.27E+08
44094,-1.9703,5.6654,59.481,3.16E+08
44095,-3.3226,6.3062,55.35,3.41E+08
44096,0.3128,5.9723,56.743,3.11E+08
44097,-1.7738,4.8387,57.225,3.23E+08
44098,-0.7315,8.7398,58.429,3.22E+08
44099,-1.2452,5.8691,54.731,3.48E+08
44100,-7.13E-02,8.2285,56.262,3.31E+08
44101,-0.37198,6.5188,58.653,3.15E+08
44102,-3.3281,4.7485,61.293,2.78E+08
44103,-3.1316,3.9218,59.038,2.85E+08
44104,-3.6475,9.6431,52.674,3.26E+08
44105,-4.037,11.342,55.19,3.00E+08
44106,-5.0384,7.8503,53.527,3.11E+08
44107,-3.7305,12.464,53.524,3.10E+08
44108,6.7155,-10.642,42.513,1.33E+08
44109,7.3637,-8.6163,42.902,1.71E+08
44110,8.866,-12.334,42.943,1.70E+08
44111,5.2169,-9.3657,42.658,1.14E+08
44112,5.6642,-14.145,41.429,7.59E+07
44113,3.1338,-12.627,40.907,7.14E+07
44114,4.1427,-9.2887,44.621,1.06E+08
44115,2.9787,-12.761,44.584,7.74E+07
44116,1.6538,-10.728,41.525,8.98E+07
44117,3.8416,-9.6677,40.801,9.50E+07
44118,6.7192,-13.084,42.699,1.08E+08
44119,2.1941,-9.3511,43.178,9.38E+07
44120,2.092,-12.004,42.967,8.23E+07
44121,2.7859,-11.039,45.056,9.10E+07
44122,3.9748,-13.191,42.734,7.22E+07
44123,4.791,-7.2627,45.01,1.44E+08
44124,4.5533,-5.8008,43.255,1.58E+08
44125,4.4898,-7.6417,41.19,1.18E+08
44126,2.8424,-7.325,43.567,1.21E+08
44127,-1.8619,10.712,54.4,3.53E+08
44128,-2.8633,7.2197,52.737,3.65E+08
44129,-1.5554,11.834,52.734,3.63E+08
44130,-0.78599,6.7826,52.119,3.73E+08
44131,0.38795,9.142,53.649,3.58E+08
44132,-2.7464,6.9764,50.883,3.99E+08
44133,0.27098,13.379,57.306,3.23E+08
44134,-1.0564,15.172,57.322,3.30E+08
44135,-1.9449,13.533,55.25,3.37E+08
44136,-0.66179,11.353,58.332,3.20E+08
44137,-1.5374,13.708,58.897,3.22E+08
44138,-1.55E-03,10.841,56.165,3.29E+08
44139,-3.0426,14.561,57.06,3.22E+08
44140,-1.3533,3.3186,59.596,3.10E+08
44141,4.86E-02,4.9986,61.024,3.02E+08
44142,-4.1119,3.3441,52.982,3.70E+08
44143,-2.7056,3.9594,55.465,3.36E+08
44144,-2.1769,4.9897,52.972,3.60E+08
44145,-4.1374,5.1836,51.735,3.86E+08
44146,3.4873,3.178,54.09,2.88E+08
44147,0.9298,3.6254,56.858,3.07E+08
44148,1.4584,4.6558,54.364,3.33E+08
44149,2.7367,2.9532,55.988,2.85E+08
44150,2.6324,7.0152,55.895,3.15E+08
44151,2.3317,5.3055,58.286,2.99E+08
44152,90.642,25.971,14.433,2.03E+07
44153,87.677,25.17,12.587,2.00E+07
44154,89.124,25.766,16.885,2.00E+07
44155,87.068,24.115,14.261,1.96E+07
44156,88.485,29.844,12.743,1.87E+07
44157,89.843,24.283,12.947,2.32E+07
44158,91.29,24.879,17.245,2.05E+07
44159,93.102,22.888,15.36,2.83E+07
44160,94.145,26.95,14.388,2.44E+07
44161,94.921,23.168,13.501,3.39E+07
44162,92.887,26.062,17.109,2.25E+07
44163,97.278,31.765,12.672,2.49E+07
44164,97.934,34.995,12.924,3.02E+07
44165,95.183,31.168,13.219,2.46E+07
44166,95.301,33.766,10.221,2.75E+07
44167,-3.012,40.392,105.88,1.38E+07
44168,-0.34814,38.178,107.74,1.58E+07
44169,-1.1175,39.07,105.79,1.75E+07
44170,-3.2826,39.101,109.42,6.66E+06
44171,1.898,38.282,102.23,3.13E+07
44172,2.9686,38.235,106.24,3.09E+07
44173,2.1993,39.126,104.3,3.18E+07
44174,3.8851,40.951,102.96,4.11E+07
44175,1.0588,39.629,98.863,3.34E+07
44176,-5.14E-02,38.75,102.1,2.48E+07
44177,-1.0593,39.176,98.468,2.48E+07
44178,1.6345,40.575,100.77,3.41E+07
44179,-1.0449,40.518,100.2,2.51E+07
44180,-1.517,44.609,103.83,2.73E+07
44181,-2.4193,43.736,106.14,2.31E+07
44182,-1.6446,40.917,104.26,2.04E+07
44183,-2.6382,42.684,102.35,2.31E+07
44184,85.585,15.378,14.183,3.32E+07
44185,83.631,17.259,15.152,2.09E+07
44186,88.804,16.906,14.873,3.53E+07
44187,86.062,19.185,14.91,2.30E+07
44188,82.752,15.637,13.964,2.40E+07
44189,83.062,13.029,13.671,3.40E+07
44190,82.779,14.859,11.758,3.09E+07
44191,80.496,19.939,14.395,2.22E+07
44192,81.108,14.911,14.64,2.14E+07
44193,80.826,16.741,12.727,2.03E+07
44194,79.36,18.407,12.915,2.03E+07
44195,83.23,19.445,14.691,1.98E+07
44196,81.402,22.19,11.519,2.01E+07
44197,79.057,20.827,12.377,2.41E+07
44198,82.927,21.865,14.153,2.02E+07
44199,84.744,22.751,10.141,2.04E+07
44200,86.27,22.427,12.775,2.11E+07
44201,-0.68502,43.804,80.118,4.26E+07
44202,-1.6104,42.038,79.094,4.53E+07
44203,-0.39157,40.959,77.251,4.61E+07
44204,1.2615,43.117,76.103,4.76E+07
44205,0.49455,42.635,79.242,4.52E+07
44206,-3.4439,33.962,76.238,7.67E+07
44207,-3.3483,36.769,80.75,6.04E+07
44208,-1.5419,37.246,79.858,5.75E+07
44209,-2.9114,35.28,79.32,6.28E+07
44210,-1.9827,34.828,77.647,6.31E+07
44211,-5.0772,35.033,76.34,8.50E+07
44212,-3.352,38.498,79.308,5.80E+07
44213,-2.1331,37.419,77.465,5.84E+07
44214,-3.6749,33.381,78.317,6.76E+07
44215,-2.417,42.183,83.615,4.43E+07
44216,-0.1488,42.269,83.755,4.51E+07
44217,0.62967,43.937,83.643,4.17E+07
44218,-2.0504,42.169,81.584,4.64E+07
44219,5.46E-02,42.766,81.732,4.61E+07
44220,78.047,9.5742,13.976,2.81E+07
44221,79.113,11.863,13.784,2.46E+07
44222,71.407,5.57,14.327,1.96E+07
44223,73.227,5.8453,14.97,2.16E+07
44224,77.231,5.9347,14.696,3.82E+07
44225,80.352,10.013,14.539,3.40E+07
44226,70.384,1.7107,13.822,2.99E+07
44227,73.356,3.8696,14.019,3.25E+07
44228,4.8105,43.918,90.935,5.01E+07
44229,0.1577,44.422,91.579,3.50E+07
44230,1.6178,42.756,87.159,4.48E+07
44231,1.2379,42.903,89.635,4.07E+07
44232,2.3963,44.424,87.047,4.12E+07
44233,1.2536,45.893,90.923,3.69E+07
44234,-0.39849,45.345,89.588,3.35E+07
44235,0.35209,40.899,97.302,3.29E+07
44236,3.0458,42.299,99.601,4.30E+07
44237,0.36646,42.241,99.03,3.33E+07
44238,1.1008,40.422,95.824,3.76E+07
44239,7.9674,40.755,91.917,7.90E+07
44240,2.1494,36.946,88.653,5.65E+07
44241,-0.26429,37.846,89.412,4.17E+07
44242,0.94367,38.991,90.459,4.47E+07
44243,0.77553,38.289,92.507,4.24E+07
44244,2.7819,34.793,83.547,7.46E+07
44245,6.54E-02,37.706,87.002,4.81E+07
44246,-0.24464,36.875,84.844,5.02E+07
44247,1.5618,37.352,83.952,5.92E+07
44248,1.6532,38.704,85.573,5.48E+07
44249,1.2734,38.851,88.049,5.10E+07
44250,4.4903,30.641,79.821,1.20E+08
44251,2.8448,34.065,79.005,8.36E+07
44252,2.9595,31.364,78.109,1.00E+08
44253,1.8646,35.34,81.256,6.98E+07
44254,0.49507,33.373,80.719,6.58E+07
44255,1.4238,32.922,79.045,7.55E+07
44256,2.3394,30.793,79.878,8.52E+07
44257,53.477,-6.0964,10.79,3.53E+07
44258,50.231,-8.4341,12.601,3.59E+07
44259,52.151,-9.0221,10.961,3.84E+07
44260,48.229,-6.7163,12.084,4.44E+07
44261,49.803,-8.7838,10.886,3.76E+07
44262,57.327,-6.6558,12.371,3.51E+07
44263,56.398,-8.0813,10.85,4.39E+07
44264,57.736,-5.8315,8.898,4.63E+07
44265,57.388,-9.8572,14.53,4.36E+07
44266,54.678,-11.879,12.83,5.37E+07
44267,58.313,-14.082,15.497,6.12E+07
44268,54.09,-13.17,14,5.66E+07
44269,56.459,-11.283,13.009,5.50E+07
44270,51.372,-11.015,12.482,4.49E+07
44271,49.077,-13.569,14.263,5.16E+07
44272,47.012,-11.329,14.346,4.43E+07
44273,47.45,-8.7096,13.605,3.94E+07
44274,49.024,-10.777,12.407,4.16E+07
44275,50.784,-12.307,13.652,4.70E+07
44276,60.999,-6.3613,13.075,4.01E+07
44277,58.846,-5.6176,14.89,2.58E+07
44278,57.782,-8.985,12.72,4.68E+07
44279,4.4277,27.364,57.896,3.53E+08
44280,4.9635,30.936,55.829,3.08E+08
44281,3.9115,25.883,61.507,3.51E+08
44282,2.252,23.947,58.23,3.23E+08
44283,2.007,25.687,59.685,3.18E+08
44284,2.7834,23.81,60.161,3.30E+08
44285,4.1941,22.891,59.042,3.56E+08
44286,50.945,-11.365,10.767,4.84E+07
44287,52.704,-12.895,12.012,5.75E+07
44288,55.073,-11.007,11.021,5.64E+07
44289,62.53,-14.185,16.037,6.96E+07
44290,62.734,-15.681,15.322,7.71E+07
44291,61.913,-16.639,18.191,6.75E+07
44292,-0.73041,17.569,67.137,2.69E+08
44293,1.767,13.839,64.496,2.99E+08
44294,2.0252,15.93,66.041,2.94E+08
44295,-0.24818,15.095,63.368,3.07E+08
44296,1.6573,16.075,63.729,3.09E+08
44297,4.67E-02,17.1,64.669,3.00E+08
44298,-1.8403,13.867,66.088,2.79E+08
44299,-3.3047,19.486,57.131,3.34E+08
44300,-3.867,22.238,59.684,3.41E+08
44301,-1.6817,21.098,58.624,3.19E+08
44302,-2.9682,21.717,61.858,3.12E+08
44303,-1.7216,18.845,58.754,3.26E+08
44304,-2.2025,17.381,60.329,3.20E+08
44305,-3.7077,18.234,58.492,3.29E+08
44306,-1.9077,19.386,61.63,3.10E+08
44307,-1.1502,20.961,60.555,3.10E+08
44308,-5.126,18.582,61.548,3.23E+08
44309,-3.7892,21.413,57.347,3.34E+08
44310,0.96785,18.314,67.32,2.59E+08
44311,0.27124,21.37,70.043,2.12E+08
44312,-1.5845,22.72,68.337,2.33E+08
44313,-2.0712,21.815,66.176,2.70E+08
44314,-1.0107,19.485,65.948,2.73E+08
44315,39.019,-11.406,14.222,7.70E+07
44316,40.44,-12.528,11.637,6.59E+07
44317,39.091,-16.11,11.266,8.74E+07
44318,41.223,-13.318,13.979,6.65E+07
44319,39.605,-15.336,13.413,8.24E+07
44320,37.588,-15.19,15.164,9.33E+07
44321,41.585,-9.5278,12.472,5.96E+07
44322,42.368,-10.318,14.814,5.66E+07
44323,42.806,-7.6987,14.073,6.46E+07
44324,41.073,-7.5674,12.785,6.86E+07
44325,-0.61219,-9.1967,57.658,1.49E+08
44326,-3.3015,-7.6152,56.276,1.93E+08
44327,-1.6375,-9.2873,55.545,1.46E+08
44328,-1.8069,-7.0073,56.873,1.95E+08
44329,-2.517,-6.3148,59.005,1.95E+08
44330,-4.0569,-10.999,59.302,1.07E+08
44331,1.8323,-8.3061,54.863,1.53E+08
44332,2.5318,-10.74,53.976,1.16E+08
44333,0.28604,-10.301,54.676,1.30E+08
44334,0.11664,-8.021,56.004,1.74E+08
44335,1.99,-4.3012,55.297,2.04E+08
44336,-0.93284,-2.1514,56.612,2.77E+08
44337,0.23493,0.14567,57.499,2.80E+08
44338,0.27433,-4.0161,56.439,2.27E+08
44339,2.0418,-0.5266,56.629,2.60E+08
44340,-0.43582,-3.3236,58.57,2.34E+08
44341,1.0199,-1.7058,55.533,2.66E+08
44342,3.035,-6.7937,49.955,1.59E+08
44343,3.0527,-8.836,52.049,1.39E+08
44344,-0.22654,-4.7263,51.933,2.29E+08
44345,0.80699,-8.3966,52.749,1.51E+08
44346,2.6051,-5.1016,51.626,1.93E+08
44347,0.63759,-6.1167,54.078,1.99E+08
44348,1.3832,-3.8064,53.173,2.27E+08
44349,0.25719,-6.6104,51.22,1.72E+08
44350,1.6782,-8.5444,50.39,1.31E+08
44351,43.79,-11.44,12.228,4.72E+07
44352,44.228,-8.821,11.487,4.73E+07
44353,44.57,-10.411,8.2165,4.02E+07
44354,45.802,-10.888,10.289,4.09E+07
44355,43.606,-12.567,8.9943,4.79E+07
44356,42.495,-8.6897,10.199,5.02E+07
44357,42.172,-13.457,11.663,6.16E+07
44358,3.4075,-1.1021,51.06,2.42E+08
44359,1.9293,3.0749,52.079,3.24E+08
44360,3.2075,1.3722,53.703,2.80E+08
44361,2.1857,0.19301,52.607,2.84E+08
44362,1.7052,1.0363,50.457,3.06E+08
44363,4.1612,-17.441,40.471,5.90E+07
44364,4.2293,-15.38,40.067,6.41E+07
44365,7.8147,-15.837,41.859,1.02E+08
44366,5.0703,-15.944,41.894,6.29E+07
44367,0.2488,-17.603,41.904,8.76E+07
44368,0.31697,-15.542,41.5,8.43E+07
44369,-2.9952,-14.478,43.653,1.25E+08
44370,0.16183,-15.677,45.178,7.94E+07
44371,-0.72485,-14.919,43.56,9.31E+07
44372,-1.9243,-15.946,45.402,9.97E+07
44373,1.158,-16.106,43.327,7.33E+07
44374,3.0002,13.421,60.415,3.17E+08
44375,2.342,15.336,55.286,3.40E+08
44376,1.466,16.141,57.712,3.29E+08
44377,0.57753,14.501,55.64,3.33E+08
44378,1.8606,12.321,58.722,3.22E+08
44379,0.98503,14.676,59.287,3.20E+08
44380,2.5209,11.81,56.555,3.31E+08
44381,2.8905,15.657,59.648,3.26E+08
44382,3.448,17.338,58.394,3.39E+08
44383,3.4652,14.584,64.679,3.01E+08
44384,4.8282,12.661,64.094,2.88E+08
44385,2.0674,11.394,61.44,3.08E+08
44386,1.1918,13.75,62.005,3.05E+08
44387,3.0973,14.73,62.366,3.15E+08
44388,1.6308,-15.923,39.949,7.75E+07
44389,2.4718,-16.487,41.776,6.65E+07
44390,0.21894,-11.963,40.164,9.47E+07
44391,2.4067,-10.903,39.44,8.60E+07
44392,0.65718,-13.239,41.605,8.56E+07
44393,2.54,-14.426,41.373,7.01E+07
44394,-6.2615,-11.467,41.786,1.99E+08
44395,-6.4815,-8.6436,40.843,2.00E+08
44396,-8.077,-9.3588,39.091,2.51E+08
44397,-4.4294,-10.632,40.252,1.73E+08
44398,-5.1454,-8.91,42.907,1.70E+08
44399,-4.6412,-11.111,45.838,1.52E+08
44400,-3.0933,-10.898,42.316,1.42E+08
44401,-2.5529,-9.5217,43.969,1.29E+08
44402,-2.655,-12.174,43.758,1.31E+08
44403,-3.8545,-13.201,45.599,1.36E+08
44404,-4.8769,-9.3238,44.917,1.54E+08
44405,28.569,-8.2786,-24.777,1.26E+08
44406,32.22,-8.488,-22.218,1.28E+08
44407,-11.738,-5.193,38.831,3.43E+08
44408,-10.761,-6.9838,37.934,3.04E+08
44409,-12.331,-7.5531,35.658,3.13E+08
44410,20.595,-7.845,-50.399,1.19E+08
44411,21.102,-9.986,-46.791,1.12E+08
44412,18.199,-5.8698,-48.358,1.57E+08
44413,18.559,-7.6205,-49.678,1.31E+08
44414,18.636,-4.9645,-46.865,1.71E+08
44415,18.67,-7.9385,-46.298,1.34E+08
44416,19.852,-9.7655,-48.671,1.13E+08
44417,19.605,-8.978,-44.657,1.23E+08
44418,21.666,-7.1845,-44.892,1.35E+08
44419,22.378,-8.3281,-46.015,1.22E+08
44420,22.967,-5.9842,-46.312,1.47E+08
44421,23.883,-7.251,-48.09,1.20E+08
44422,17.94,-8.0591,-52.57,1.24E+08
44423,19.233,-10.204,-51.564,1.02E+08
44424,21.142,-12.455,-43.166,9.39E+07
44425,22.684,-13.052,-46.223,8.02E+07
44426,23,-12.002,-44.024,8.99E+07
44427,18.558,-10.518,-45.583,1.10E+08
44428,19.739,-12.345,-47.956,9.06E+07
44429,19.492,-11.558,-43.942,1.01E+08
44430,22.265,-10.908,-45.301,9.88E+07
44431,11.752,-9.9931,-42.387,1.22E+08
44432,11.453,-8.0341,-40.53,1.20E+08
44433,13.551,-8.4505,-40.153,1.22E+08
44434,10.632,-12.029,-39.597,1.10E+08
44435,10.304,-9.8936,-40.418,1.14E+08
44436,14.625,-9.6738,-42.41,1.21E+08
44437,15.559,-10.713,-40.769,1.13E+08
44438,14.196,-10.15,-38.556,1.16E+08
44439,13.925,-13.267,-37.793,1.06E+08
44440,12.279,-12.648,-38.695,1.07E+08
44441,19.558,-11.317,-37.755,1.10E+08
44442,20.727,-9.375,-33.305,1.27E+08
44443,20.725,-8.8535,-36.333,1.30E+08
44444,18.283,-8.3819,-36.763,1.34E+08
44445,17.908,-10.42,-38.531,1.16E+08
44446,16.545,-9.8564,-36.318,1.20E+08
44447,16.274,-12.974,-35.556,1.11E+08
44448,22.462,-9.8803,-38.834,1.20E+08
44449,23.152,-11.891,-41.113,9.68E+07
44450,20.02,-9.4088,-39.264,1.24E+08
44451,19.645,-11.447,-41.032,1.07E+08
44452,21.705,-9.6533,-41.267,1.19E+08
44453,22.418,-10.797,-42.39,1.05E+08
44454,15.543,-6.0839,-50.529,1.60E+08
44455,13.529,-4.1219,-50.84,1.85E+08
44456,13.912,-2.2428,-48.874,2.07E+08
44457,14.605,-1.9371,-51.488,2.16E+08
44458,15.62,-3.428,-47.717,1.96E+08
44459,12.552,-3.9102,-47.728,1.79E+08
44460,15.655,-6.4019,-47.15,1.56E+08
44461,14.26,-4.6166,-47.197,1.74E+08
44462,13.844,-6.2661,-49.89,1.61E+08
44463,13.889,-5.8725,-52.16,1.63E+08
44464,16.014,-8.1526,-48.47,1.31E+08
44465,17.196,-9.9796,-50.842,1.15E+08
44466,13.583,-7.1304,-53.828,1.50E+08
44467,14.204,-8.0167,-51.21,1.39E+08
44468,10.082,-7.1501,-43.188,1.30E+08
44469,12.18,-7.5665,-42.811,1.31E+08
44470,9.6753,-8.5809,-46.973,1.36E+08
44471,10.151,-6.2981,-45.646,1.52E+08
44472,8.9331,-9.0096,-43.076,1.24E+08
44473,13.253,-8.7898,-45.068,1.32E+08
44474,11.858,-7.0045,-45.115,1.48E+08
44475,8.3648,-7.1082,-44.873,1.36E+08
44476,8.5067,-10.554,-45.262,1.42E+08
44477,11.443,-8.6539,-47.808,1.34E+08
44478,9.1202,-9.9394,-46.686,1.30E+08
44479,11.881,-5.6076,-40.954,1.30E+08
44480,9.8521,-4.3392,-43.789,1.48E+08
44481,8.6346,-7.0507,-41.22,1.22E+08
44482,11.56,-5.0456,-43.258,1.46E+08
44483,8.0663,-5.1492,-43.017,1.33E+08
44484,16.363,-6.2487,-39.424,1.40E+08
44485,15.053,-7.2473,-42.833,1.31E+08
44486,15.988,-8.2868,-41.192,1.23E+08
44487,14.624,-7.7232,-38.98,1.25E+08
44488,13.658,-5.4619,-42.88,1.47E+08
44489,9.8174,-2.0665,-52.643,2.28E+08
44490,5.1956,-2.0234,-52.13,2.36E+08
44491,10.201,-0.18735,-50.677,2.36E+08
44492,10.894,0.11834,-53.291,2.59E+08
44493,7.8387,0.89249,-50.974,2.53E+08
44494,7.4198,-1.9352,-50.968,2.21E+08
44495,7.4517,-2.8401,-52.834,2.26E+08
44496,10.422,-5.9816,-50.686,1.65E+08
44497,12.258,-2.0314,-50.505,2.09E+08
44498,12.95,-1.7257,-53.119,2.26E+08
44499,10.897,-3.6988,-49.36,1.80E+08
44500,9.4766,-3.7792,-50.796,1.87E+08
44501,9.5084,-4.6841,-52.662,1.89E+08
44502,11.569,-5.1683,-54.139,1.84E+08
44503,12.19,-6.0547,-51.522,1.66E+08
44504,0.41537,-2.1437,-52.116,2.31E+08
44505,2.464,-4.085,-48.581,1.76E+08
44506,4.8547,-3.7362,-50.283,1.93E+08
44507,4.8865,-4.6411,-52.149,1.99E+08
44508,0.51835,-4.4064,-50.996,1.99E+08
44509,1.6024,-2.861,-50.166,2.02E+08
44510,-3.7291,-2.599,-52.155,2.22E+08
44511,-6.4156,-2.8691,-48.879,1.92E+08
44512,-6.2032,-1.0361,-51.038,2.22E+08
44513,-7.8856,-6.3706,-50.128,1.79E+08
44514,-4.1305,-2.4425,-49.467,1.93E+08
44515,-4.1881,-4.6812,-49.048,1.75E+08
44516,-6.7969,-4.8366,-49.701,1.85E+08
44517,-3.6262,-4.8616,-51.036,1.91E+08
44518,-4.2738,1.0998,-51.669,2.52E+08
44519,-1.2523,1.3091,-50.752,2.56E+08
44520,-2.2011,-0.30658,-50.098,2.25E+08
44521,-1.6967,-2.7257,-51.667,2.21E+08
44522,-0.61268,-1.1803,-50.837,2.24E+08
44523,-6.9602,0.82969,-48.392,2.29E+08
44524,-9.641,-2.2933,-46.879,2.18E+08
44525,-8.5737,-3.5384,-44.576,1.63E+08
44526,-4.8875,-0.57674,-46.822,1.91E+08
44527,-4.9451,-2.8154,-46.403,1.73E+08
44528,-7.554,-2.9707,-47.055,1.89E+08
44529,-9.2762,-0.40413,-45.285,2.17E+08
44530,-13.568,5.4906,-52.872,2.33E+08
44531,-14.838,3.2276,-53.107,2.37E+08
44532,-14.963,4.9771,-54.043,2.22E+08
44533,-12.919,2.1161,-53.647,2.38E+08
44534,-10.732,3.0709,-53.39,2.56E+08
44535,-4.6751,1.2563,-48.98,2.25E+08
44536,-7.6395,2.5282,-52.054,2.70E+08
44537,-11.111,-5.7948,-48.128,2.09E+08
44538,-11.042,-4.8283,-45.222,1.88E+08
44539,-10.022,-4.2607,-47.701,2.10E+08
44540,-11.745,-1.6941,-45.93,2.40E+08
44541,-13.523,-3.7091,-45.51,2.30E+08
44542,-8.4313,-9.2645,-39.284,8.06E+07
44543,-3.5327,-7.574,-41.177,9.43E+07
44544,-7.9883,-7.2598,-41.58,1.09E+08
44545,-7.5052,-9.1444,-41.586,9.99E+07
44546,-10.418,-8.0781,-40.622,9.93E+07
44547,-13.098,-9.73,-37.51,1.06E+08
44548,-13.857,-10.113,-39.574,8.63E+07
44549,-10.884,-11.525,-39.788,7.90E+07
44550,-12.2,-8.618,-39.355,8.54E+07
44551,-9.9348,-9.9627,-40.628,9.00E+07
44552,-10.139,-10.958,-36.281,8.89E+07
44553,0.61689,-5.5236,-43.914,1.24E+08
44554,1.0703,-6.4105,-42.174,1.08E+08
44555,-1.8907,-5.6646,-44.341,1.29E+08
44556,-10.044,-7.0398,-45.825,1.60E+08
44557,-11.747,-9.791,-46.756,1.54E+08
44558,-9.024,-6.4722,-48.304,1.81E+08
44559,-11.715,-9.2807,-49.598,1.77E+08
44560,-9.5607,-8.9244,-45.831,1.48E+08
44561,-11.678,-8.8246,-43.849,1.32E+08
44562,-11.757,-6.6133,-41.651,1.12E+08
44563,-8.9551,-5.5058,-45.397,1.58E+08
44564,-10.677,-2.9391,-43.627,1.82E+08
44565,-12.456,-4.9542,-43.207,1.78E+08
44566,-9.4918,-7.958,-42.924,1.27E+08
44567,-15.118,-10.86,-42.801,1.00E+08
44568,-12.144,-12.271,-43.015,9.79E+07
44569,-13.461,-9.3645,-42.582,1.07E+08
44570,-13.349,-11.065,-47.622,1.49E+08
44571,-11.195,-10.709,-43.855,1.21E+08
44572,-11.702,-13.569,-43.665,9.65E+07
44573,9.4456,-5.7699,-47.575,1.55E+08
44574,8.0246,-5.8504,-49.011,1.59E+08
44575,9.1495,-10.364,-49.649,1.34E+08
44576,8.0565,-6.7553,-50.877,1.59E+08
44577,7.6598,-6.58,-46.802,1.40E+08
44578,10.738,-8.1258,-49.737,1.40E+08
44579,8.4152,-9.4113,-48.614,1.34E+08
44580,6.4317,-13.199,-40.459,1.17E+08
44581,6.1042,-11.063,-41.28,1.20E+08
44582,5.6779,-12.608,-43.466,1.37E+08
44583,5.0964,-14.438,-41.784,1.21E+08
44584,6.1749,-15.008,-40.044,1.12E+08
44585,2.751,-5.2324,-43.977,1.28E+08
44586,4.6883,-3.9968,-47.419,1.63E+08
44587,-0.21005,-4.4865,-46.144,1.51E+08
44588,4.3234,-4.7264,-45.21,1.42E+08
44589,1.4359,-3.1216,-47.302,1.69E+08
44590,-53.141,-6.4095,-47.099,5.02E+06
44591,-26.767,-8.2544,-31.96,2.02E+08
44592,-28.879,-9.9519,-23.219,1.82E+08
44593,-28.788,-10.191,-21.17,1.68E+08
44594,-18.048,-8.893,-36.728,1.88E+08
44595,-18.807,-9.2765,-38.792,1.72E+08
44596,-19.158,-7.0087,-37.388,2.34E+08
44597,-18.642,-9.7812,-34.915,2.02E+08
44598,-22.809,-8.7744,-34.429,2.35E+08
44599,-16.095,-9.7606,-38.758,1.19E+08
44600,-16.445,-7.4928,-37.354,1.81E+08
44601,-15.93,-10.265,-34.881,1.57E+08
44602,-14.438,-8.2651,-38.539,1.09E+08
44603,-13.88,-11.555,-41.036,8.02E+07
44604,-17.205,-7.8763,-39.418,1.65E+08
44605,-15.197,-8.6486,-40.603,9.89E+07
44606,-19.108,-10.725,-42.086,1.47E+08
44607,-12.223,-10.06,-40.817,8.44E+07
44608,-9.9578,-11.404,-42.09,9.54E+07
44609,-10.465,-14.264,-41.901,7.80E+07
44610,-15.473,4.9701,-52.758,2.28E+08
44611,-15.598,6.7196,-53.693,2.15E+08
44612,7.8133,-11.045,-40.286,1.11E+08
44613,6.8055,-14.42,-40.79,1.12E+08
44614,7.884,-14.989,-39.051,1.04E+08
44615,9.7874,-13.8,-38.563,1.06E+08
44616,8.4351,-17.608,-40.036,8.47E+07
44617,12.681,2.6376,-49.001,2.38E+08
44618,10.319,3.7174,-49.298,2.43E+08
44619,13.334,0.15343,-51.153,2.40E+08
44620,14.349,-1.3375,-47.382,2.18E+08
44621,11.281,-1.8197,-47.394,2.01E+08
44622,10.279,0.92758,-48.836,2.37E+08
44623,9.8602,-1.9001,-48.83,2.01E+08
44624,12.989,-2.5261,-46.862,1.94E+08
44625,13.868,0.65465,-56.09,2.78E+08
44626,24.687,-8.4441,-28.36,1.28E+08
44627,23.631,-7.9381,-34.384,1.36E+08
44628,25.347,-7.8874,-33.082,1.38E+08
44629,28.522,-9.587,-42.563,9.07E+07
44630,26.22,-9.5336,-43.03,1.00E+08
44631,24.773,-7.296,-43.184,1.23E+08
44632,25.486,-8.4396,-44.307,1.09E+08
44633,26.075,-6.0957,-44.604,1.34E+08
44634,26.991,-7.3625,-46.381,1.07E+08
44635,27.312,-11.491,-41.504,8.32E+07
44636,24.32,-9.4272,-39.691,1.16E+08
44637,21.188,-6.945,-37.842,1.44E+08
44638,25.345,-7.3658,-36.11,1.43E+08
44639,22.873,-7.1896,-39.845,1.39E+08
44640,-31.933,-5.0344,25.119,1.95E+08
44641,24.694,-12.488,-44.17,8.11E+07
44642,23.96,-11.394,-45.447,8.99E+07
44643,-0.58272,-8.6911,38.388,1.23E+08
44644,1.6051,-7.631,37.664,1.16E+08
44645,-7.9384,-5.0114,41.109,2.56E+08
44646,-6.9609,-6.8022,40.212,2.20E+08
44647,-4.3975,-4.5127,43.888,1.66E+08
44648,-3.3133,-8.0754,41.373,1.45E+08
44649,-2.7729,-6.6987,43.025,1.45E+08
44650,-5.0969,-6.5007,43.973,1.73E+08
44651,-4.5275,-4.0267,40.296,1.62E+08
44652,-4.6459,-3.9946,49.589,2.45E+08
44653,-5.4212,-7.7138,48.037,1.73E+08
44654,-4.9575,-3.9384,47.031,2.12E+08
44655,-4.1621,-5.8787,48.876,2.00E+08
44656,-7.2727,-5.746,49.815,2.47E+08
44657,-5.6569,-5.9265,47.116,1.93E+08
44658,-9.5339,-5.7266,39.357,2.99E+08
44659,3.7345,-9.2279,49.067,1.25E+08
44660,5.8664,-8.5665,48.935,1.43E+08
44661,3.2868,-5.4935,48.644,1.72E+08
44662,3.4791,-5.7238,45.218,1.55E+08
44663,1.7682,-7.248,45.53,1.22E+08
44664,2.0991,-5.2455,46.896,1.67E+08
44665,0.93898,-7.0023,48.238,1.53E+08
44666,2.3599,-8.9363,47.408,1.18E+08
44667,42.217,-24.147,-2.9621,1.09E+08
44668,1.855,-13.197,51.341,8.81E+07
44669,1.5065,-10.831,51.862,1.21E+08
44670,2.5705,-12.701,49.031,8.54E+07
44671,5.8841,-10.609,51.03,1.28E+08
44672,2.3777,-10.979,49.503,1.06E+08
44673,-2.278,-13.202,51.864,1.09E+08
44674,-0.39076,-12.758,52.042,1.03E+08
44675,0.67322,-14.627,49.21,8.14E+07
44676,-1.4129,-14.896,49.435,9.08E+07
44677,0.4804,-12.905,49.682,9.28E+07
44678,-4.4353,-10.885,50.017,1.41E+08
44679,-4.2905,-9.1638,53.116,1.70E+08
44680,-2.6265,-10.836,52.385,1.34E+08
44681,-3.6486,-12.975,49.778,1.16E+08
44682,-3.1763,-9.0497,50.855,1.50E+08
44683,-6.2869,-8.9169,51.794,1.96E+08
44684,-3.1493,-2.5765,53.248,2.96E+08
44685,-3.731,-0.42047,53.97,3.51E+08
44686,-2.3246,0.19483,56.453,3.12E+08
44687,-3.7798,-4.5748,54.796,2.57E+08
44688,-2.2852,-3.9669,55.393,2.64E+08
44689,-2.9954,-3.2744,57.525,2.69E+08
44690,-1.5396,-1.6566,54.488,2.99E+08
44691,41.479,-16.734,7.1647,7.25E+07
44692,42.256,-16.149,8.623,6.97E+07
44693,40.822,-17.04,11.292,8.67E+07
44694,40.708,-18.276,14.476,1.08E+08
44695,38.691,-18.131,16.227,1.12E+08
44696,42.218,-15.012,3.2565,6.96E+07
44697,43.428,-15.069,6.6437,5.76E+07
44698,48.648,-16.319,11.627,6.80E+07
44699,47.364,-13.049,7.6976,4.81E+07
44700,48.595,-13.527,9.7698,5.28E+07
44701,46.4,-15.206,8.4753,5.59E+07
44702,50.355,-15.057,11.015,6.28E+07
44703,46.637,-14.47,14.487,5.58E+07
44704,48.649,-13.918,12.548,5.49E+07
44705,50.409,-15.448,13.793,6.63E+07
44706,45.011,-9.6109,13.829,4.58E+07
44707,46.585,-11.678,12.631,4.67E+07
44708,42.955,-14.247,14.005,6.69E+07
44709,1.1338,18.717,53.497,3.36E+08
44710,-0.56847,17.77,53.679,3.33E+08
44711,1.0146,17.129,55.302,3.42E+08
44712,0.12619,15.49,53.23,3.47E+08
44713,-1.3254,20.162,54.3,3.24E+08
44714,0.29761,21.774,55.793,3.21E+08
44715,0.25767,19.522,55.923,3.28E+08
44716,-1.8099,22.089,54.516,3.17E+08
44717,-1.4046,20.827,55.975,3.21E+08
44718,-1.4446,18.574,56.105,3.28E+08
44719,-2.333,16.935,54.033,3.38E+08
44720,-3.4307,17.963,55.843,3.28E+08
44721,-3.5121,21.142,54.698,3.34E+08
44722,3.8943,18.184,64.824,3.15E+08
44723,5.0865,14.751,65.64,2.90E+08
44724,3.3555,16.82,63.911,3.12E+08
44725,1.745,17.845,64.852,2.92E+08
44726,0.74824,25.351,72.466,1.54E+08
44727,2.9387,23.839,74.216,1.61E+08
44728,2.7505,24.96,71.1,2.01E+08
44729,0.4745,24.136,69.965,2.04E+08
44730,1.5142,23.127,73.939,1.59E+08
44731,63.275,-3.9694,13.431,3.17E+07
44732,64.982,-2.5033,13.524,2.97E+07
44733,61.121,-3.2258,15.246,2.21E+07
44734,67.967,-1.2018,13.181,3.64E+07
44735,71.489,-1.3883,14.925,4.81E+07
44736,47.023,-9.0593,11.889,4.01E+07
44737,43.716,-6.8606,11.8,5.59E+07
44738,3.354,26.723,67.275,2.74E+08
44739,1.0781,25.899,66.14,2.69E+08
44740,0.59142,24.995,63.979,2.90E+08
44741,1.6329,26.116,62.2,3.13E+08
44742,2.4094,24.239,62.676,3.26E+08
44743,-1.967,23.579,58.528,3.18E+08
44744,-3.2534,24.198,61.762,3.15E+08
44745,-2.2119,25.319,59.983,3.18E+08
44746,-1.4355,23.442,60.459,3.05E+08
44747,-4.0745,23.894,57.251,3.42E+08
44748,-1.9115,26.331,75.444,9.81E+07
44749,-1.9967,29.623,73.841,1.09E+08
44750,1.3567,26.403,75.011,1.18E+08
44751,1.1684,27.524,71.894,1.62E+08
44752,-1.1075,26.7,70.759,1.70E+08
44753,1.0002,28.932,74.314,1.17E+08
44754,0.38013,28.361,76.082,9.88E+07
44755,-2.2277,29.042,75.919,9.06E+07
44756,-6.78E-02,25.691,74.733,1.17E+08
44757,64.994,-3.6969,12.001,4.25E+07
44758,61.134,-4.4194,13.723,2.78E+07
44759,61.408,-5.537,9.6018,5.33E+07
44760,-1.8453,22.817,77.345,9.28E+07
44761,-0.69759,26.777,78.267,6.41E+07
44762,-3.3054,27.459,78.103,6.41E+07
44763,-1.1455,24.108,76.917,8.82E+07
44764,-1.62E-03,22.177,76.633,1.23E+08
44765,82.831,4.6119,20.08,5.25E+07
44766,1.8516,35.708,75.346,7.93E+07
44767,1.9664,33.008,74.451,9.42E+07
44768,0.43065,34.565,75.386,7.52E+07
44769,0.28022,37.156,75.204,6.43E+07
44770,-0.1627,30.64,74.894,9.64E+07
44771,-1.6984,32.198,75.83,8.24E+07
44772,-4.7929,32.402,74.523,1.04E+08
44773,-0.7828,30.069,76.663,8.04E+07
44774,-3.3907,30.751,76.5,8.74E+07
44775,4.7216,26.697,77.776,1.43E+08
44776,4.3651,29.226,77.079,1.33E+08
44777,3.745,28.655,78.848,1.18E+08
44778,7.1411,28.278,77.399,1.93E+08
44779,2.7195,32.649,76.263,9.71E+07
44780,1.6246,36.625,79.41,6.92E+07
44781,0.25512,34.658,78.872,6.66E+07
44782,1.1838,34.207,77.199,7.51E+07
44783,1.0334,36.798,77.017,6.51E+07
44784,3.3589,26.012,73.645,1.65E+08
44785,3.1907,27.42,76.064,1.24E+08
44786,2.5706,26.849,77.833,1.07E+08
44787,2.1227,24.179,76.484,1.23E+08
44788,4.2424,24.163,78.776,1.45E+08
44789,-2.6583,37.775,85.603,4.90E+07
44790,-3.1442,40.02,89.351,3.92E+07
44791,-3.0287,39.519,86.192,4.53E+07
44792,-0.76047,39.604,86.332,4.54E+07
44793,-1.1403,39.751,88.808,4.10E+07
44794,-3.3387,38.688,84.034,5.12E+07
44795,-1.162,37.422,82.554,5.45E+07
44796,-1.0705,38.773,84.174,4.92E+07
44797,-2.5315,35.455,82.016,5.73E+07
44798,-2.9721,38.674,82.003,5.27E+07
44799,-3.0165,42.684,92.343,3.27E+07
44800,-1.9362,41.165,90.399,3.56E+07
44801,-5.6741,41.637,91.872,3.57E+07
44802,-3.5726,43.607,90.351,3.40E+07
44803,-2.1043,40.463,92.447,3.16E+07
44804,-1.4408,40.517,84.762,4.54E+07
44805,-3.3424,40.417,82.591,4.98E+07
44806,-0.39713,46.107,105.63,3.20E+07
44807,2.0634,45.112,102.41,3.87E+07
44808,-0.61601,45.055,101.84,3.15E+07
44809,3.2926,47.319,103.73,4.08E+07
44810,2.2808,47.972,102.44,4.04E+07
44811,-1.8028,46.276,94.794,3.36E+07
44812,-1.9294,42.19,95.325,2.93E+07
44813,-1.0126,42.415,91.799,3.61E+07
44814,-1.9151,43.532,97.053,2.91E+07
44815,-4.7505,42.887,93.272,3.04E+07
44816,-0.99691,45.405,93.087,3.29E+07
44817,-2.649,44.858,91.752,3.16E+07
44818,-1.1807,41.713,93.847,3.26E+07
44819,-1.625,45.873,98.103,3.16E+07
44820,-0.70689,47.746,94.137,3.49E+07
44821,1.0192,38.702,106.12,2.33E+07
44822,92.27,18.753,15.151,3.85E+07
44823,88.403,19.092,14.412,2.84E+07
44824,100.33,33.24,13.142,2.93E+07
44825,99.958,30.536,15.692,2.45E+07
44826,97.577,29.413,13.436,2.52E+07
44827,116.86,39.889,13.687,1.16E+07
44828,113.45,38.434,13.599,2.22E+07
44829,96.612,44.726,11.915,1.03E+07
44830,80.266,20.657,10.039,1.87E+07
44831,84.136,21.696,11.815,1.97E+07
44832,92.053,22.86,20.289,1.92E+07
44833,91.369,25.857,19.561,2.18E+07
44834,95.215,20.972,14.068,3.99E+07
44835,93.865,20.869,18.403,2.84E+07
44836,0.89468,26.31,69.393,2.01E+08
44837,3.0025,28.541,72.948,1.59E+08
44838,10.341,33.964,53.466,3.60E+08
44839,7.7345,32.287,54.841,3.68E+08
44840,47.365,-10.649,8.6188,4.18E+07
44841,45.169,-12.328,7.3243,4.57E+07
44842,-4.0175,-15.118,63.328,4.25E+07
44843,-5.0976,-14.31,61.807,3.16E+07
44844,30.304,-6.7204,-57.403,3.21E+07
44845,-34.555,-40.082,4.2597,7.90E+07
44846,1.1435,4.1253,-48.094,2.62E+08
44847,5.4543,3.5884,-48.302,2.65E+08
44848,-33.419,-38.2,-9.1064,7.91E+07
44849,-1.6537,1.4655,-48.064,2.23E+08
44850,-6.53E-02,0.59181,-48.802,2.22E+08
44851,-27.131,-25.374,-22.314,1.64E+08
44852,-15.547,-6.3808,-39.199,1.52E+08
44853,-16.715,-4.5154,-39.189,1.89E+08
44854,-15.336,-14.209,-33.223,1.54E+08
44855,34.525,-33.328,6.0577,1.27E+08
44856,34.991,-29.893,3.7778,1.52E+08
44857,34.74,-38.184,4.551,7.89E+07
44858,34.382,-38.178,6.8581,8.58E+07
44859,35.073,-30.017,-0.26095,1.35E+08
44860,-14.238,-5.4941,-41.94,1.55E+08
44861,-11.274,-8.4978,-41.657,1.00E+08
44862,-14.707,-5.2877,-40.374,1.27E+08
44863,-2.6601,-2.3888,-46.991,1.74E+08
44864,-2.0981,-2.5692,-48.978,1.91E+08
44865,-1.0141,-1.0238,-48.148,1.93E+08
44866,-33.571,-35.909,-10.562,1.10E+08
44867,-2.4382,-14.948,62.805,5.27E+07
44868,46.401,-12.805,9.3965,4.84E+07
44869,50.356,-12.656,11.937,5.05E+07
44870,42.771,-15.374,10.771,6.75E+07
44871,-1.8679,24.582,66.097,2.54E+08
44872,1.2985,31.506,76.303,9.23E+07
44873,2.2142,29.378,77.136,1.03E+08
44874,5.6102,29.001,75.688,1.71E+08
44875,1.9357,41.419,102.84,3.44E+07
44876,-0.74369,41.362,102.27,2.49E+07
44877,-1.7516,41.788,98.635,2.71E+07
44878,-1.0173,39.969,95.429,3.09E+07
44879,0.94212,43.187,100.93,3.38E+07
44880,4.8507,45.451,102.82,4.57E+07
44881,3.8389,46.104,101.53,4.36E+07
44882,0.73589,39.251,83.282,5.48E+07
44883,-0.72507,35.933,81.124,5.81E+07
44884,-1.1657,39.151,81.111,5.24E+07
44885,5.32E-02,38.072,79.268,5.68E+07
44886,0.93932,39.748,81.259,5.42E+07
44887,0.44749,40.749,87.379,4.54E+07
44888,1.6058,42.27,84.79,4.63E+07
44889,-1.0742,40.503,82.731,4.77E+07
44890,1.0308,41.099,82.879,4.97E+07
44891,-1.5688,43.338,89.808,3.51E+07
44892,-0.1005,40.194,91.903,3.79E+07
44893,-1.1659,33.515,78.912,6.57E+07
44894,-1.3163,36.106,78.73,5.72E+07
44895,-2.8581,32.068,79.582,6.51E+07
44896,-0.38762,35.654,77.056,6.02E+07
44897,0.67843,30.935,78.071,7.51E+07
44898,-1.9294,31.617,77.908,6.87E+07
44899,-5.0239,31.821,76.602,9.18E+07
44900,-2.66E-02,24.18,58.923,3.16E+08
44901,0.17847,20.186,57.598,3.26E+08
44902,0.74987,22.303,59.399,3.16E+08
44903,2.1605,21.383,58.279,3.26E+08
44904,-1.8891,22.754,56.19,3.14E+08
44905,-1.313,24.799,62.157,3.00E+08
44906,-1.2941,21.347,63.708,2.94E+08
44907,-0.53662,22.922,62.633,2.95E+08
44908,0.5049,24.043,60.854,3.14E+08
44909,3.5263,18.329,62.511,3.26E+08
44910,1.9158,19.355,63.452,3.05E+08
44911,2.6732,20.93,62.376,3.19E+08
44912,4.0839,20.011,61.257,3.41E+08
44913,-0.7499,16.294,55.656,3.40E+08
44914,-0.3424,16.469,59.302,3.26E+08
44915,1.563,17.449,59.663,3.24E+08
44916,-1.8476,17.323,57.465,3.21E+08
44917,-4.75E-02,18.475,60.604,3.17E+08
44918,0.70993,20.05,59.529,3.24E+08
44919,2.1206,19.131,58.409,3.33E+08
44920,-2.736,15.683,55.393,3.32E+08
44921,39.319,-16.119,15.19,9.23E+07
44922,-3.3879,-0.89477,51.651,3.31E+08
44923,-3.4368,-5.0491,52.477,2.49E+08
44924,2.53E-02,-3.4261,50.623,2.45E+08
44925,-3.1179,-2.9946,48.371,2.47E+08
44926,-1.9422,-4.4412,53.074,2.52E+08
44927,-1.1966,-2.1309,52.169,2.83E+08
44928,-1.1625,-3.1781,48.874,2.42E+08
44929,-2.3226,-4.9349,50.217,2.23E+08
44930,-5.4332,-4.8022,51.155,2.60E+08
44931,-1.6771,-1.2877,50.019,3.02E+08
44932,-2.5632,1.8766,54.857,3.55E+08
44933,-2.0345,2.907,52.363,3.78E+08
44934,-1.7782,2.51E-02,52.891,3.38E+08
44935,-2.2587,0.8684,50.741,3.61E+08
44936,-3.995,3.1008,51.127,4.02E+08
44937,-0.62821,3.5223,54.847,3.44E+08
44938,0.65005,1.8196,56.47,2.97E+08
44939,-0.37183,0.64041,55.374,3.00E+08
44940,0.24502,4.1719,58.768,3.09E+08
44941,-2.5481,-10.44,50.194,1.31E+08
44942,-2.2687,-8.8998,45.956,1.27E+08
44943,-2.3708,-11.553,45.746,1.21E+08
44944,-3.5702,-12.579,47.587,1.26E+08
44945,-3.0979,-8.6541,48.665,1.44E+08
44946,-6.2085,-8.5214,49.604,1.92E+08
44947,-1.6769,-10.588,47.835,1.22E+08
44948,-4.5927,-8.7019,46.905,1.55E+08
44949,-2.4032,-8.7194,53.294,1.76E+08
44950,-2.5726,-6.4395,54.622,2.19E+08
44951,-2.953,-6.9332,51.764,1.97E+08
44952,-6.0636,-6.8004,52.703,2.39E+08
44953,-0.90864,-8.1116,53.891,1.71E+08
44954,-1.7614,-12.53,49.955,1.02E+08
44955,-1.289,-8.6052,51.033,1.54E+08
44956,0.13192,-10.539,50.203,1.21E+08
44957,0.50204,-13.373,45.283,8.85E+07
44958,-0.69739,-14.4,47.124,9.14E+07
44959,1.1959,-12.409,47.372,9.10E+07
44960,2.3849,-14.56,45.05,7.12E+07
44961,1.635,-2.5062,51.862,2.46E+08
44962,1.6691,-3.5534,48.567,2.05E+08
44963,0.50903,-5.3102,49.91,1.83E+08
44964,1.1545,-1.6629,49.712,2.65E+08
44965,3.1779,-6.1028,41.398,1.24E+08
44966,1.5305,-5.7861,43.775,1.33E+08
44967,1.8614,-3.7837,45.14,1.82E+08
44968,-10.126,-8.0867,36.183,2.73E+08
44969,-1.805,-5.1244,44.95,1.48E+08
44970,-1.4741,-3.1219,46.316,2.01E+08
44971,-2.6342,-4.8787,47.658,1.87E+08
44972,-1.9887,-1.2314,47.461,2.60E+08
44973,-4.129,-4.9265,45.898,1.69E+08
44974,0.92667,-9.0038,40.058,1.06E+08
44975,-0.72077,-8.6872,42.434,1.08E+08
44976,-0.82288,-11.34,42.223,1.08E+08
44977,1.467,-7.627,41.71,1.04E+08
44978,23.563,-9.2003,-42.124,1.15E+08
44979,24.276,-10.344,-43.248,1.01E+08
44980,18.371,-8.5115,-40.04,1.30E+08
44981,20.431,-6.718,-40.275,1.42E+08
44982,17.008,-7.9479,-37.828,1.33E+08
44983,16.092,-5.4966,-45.657,1.69E+08
44984,14.697,-3.7113,-45.704,1.88E+08
44985,8.9188,-0.73985,-47.69,2.07E+08
44986,8.4999,-3.5676,-47.684,1.74E+08
44987,11.629,-4.1935,-45.716,1.69E+08
44988,8.135,-4.2972,-45.475,1.57E+08
44989,11.213,-5.843,-48.41,1.55E+08
44990,7.4979,-0.82028,-49.127,2.13E+08
44991,-17.105,0.41525,-53.345,2.19E+08
44992,-16.868,4.4566,-53.928,2.21E+08
44993,-14.824,1.5955,-53.532,2.27E+08
44994,5.3451,-7.5147,-41.673,1.13E+08
44995,4.7768,-5.6133,-43.47,1.26E+08
44996,7.1108,-4.5529,-50.987,1.83E+08
44997,6.7141,-4.3776,-46.911,1.58E+08
44998,-5.3265,-4.7828,-47.224,1.68E+08
44999,-2.1557,-4.8079,-48.559,1.73E+08
45000,-1.0717,-3.2625,-47.729,1.74E+08
45001,6.9175,-7.0087,-42.905,1.28E+08
45002,7.0595,-10.455,-43.294,1.33E+08
45003,10.506,-14.228,-49.438,1.06E+08
45004,10.917,-10.437,-50.485,1.35E+08
45005,8.5943,-11.722,-49.362,1.27E+08
45006,-14.587,-11.939,-51.328,1.45E+08
45007,-13.158,-1.8199,-43.915,2.25E+08
45008,17.308,-10.298,-47.463,1.12E+08
45009,17.061,-9.5101,-43.449,1.22E+08
45010,19.121,-7.7166,-43.684,1.34E+08
45011,14.731,-6.6853,-45.137,1.49E+08
45012,14.316,-8.3347,-47.831,1.33E+08
45013,20.056,-8.7561,-42.043,1.26E+08
45014,16.632,-9.9861,-39.596,1.16E+08
45015,20.769,-9.8998,-43.166,1.11E+08
45016,5.23E-02,12.649,60.312,3.16E+08
45017,1.5881,9.7828,57.581,3.26E+08
45018,1.2874,8.073,59.971,3.09E+08
45019,1.0821,15.985,61.238,3.14E+08
45020,-2.3285,15.858,59.04,3.15E+08
45021,-0.52846,17.01,62.179,3.09E+08
45022,6.1253,-14.883,43.165,8.53E+07
45023,1.1787,2.85,53.977,3.22E+08
45024,1.0744,6.912,53.883,3.51E+08
45025,0.15681,1.6708,52.881,3.23E+08
45026,-0.32369,2.5141,50.731,3.47E+08
45027,-2.06,4.7465,51.117,3.93E+08
45028,-1.7882,-5.1391,57.351,2.19E+08
45029,-0.33242,-3.5213,54.314,2.50E+08
45030,-1.4584,-6.3253,52.361,1.92E+08
45031,1.4351,-3.19E-02,54.504,2.81E+08
45032,-3.0361,-3.381,61.359,2.17E+08
45033,58.1,-10.316,9.3246,7.12E+07
45034,1.8092,42.767,82.767,4.64E+07
45035,75.827,1.9241,15.064,5.13E+07
45036,81.135,14.132,12.434,2.70E+07
45037,-1.7569,39.324,78.717,5.22E+07
45038,-0.8708,41,80.708,4.82E+07
45039,1.9476,7.5617,57.805,3.19E+08
45040,0.34808,39.921,78.865,5.17E+07
45041,-4.4056,-3.7717,63.738,1.69E+08
45042,-6.73E-02,-0.36777,51.259,3.09E+08
45043,1.377,17.991,62.539,3.09E+08
45044,2.1344,19.566,61.464,3.20E+08
45045,3.5451,18.647,60.345,3.39E+08
45046,22.829,-8.1062,-43.401,1.24E+08
45047,23.418,-5.7623,-43.698,1.49E+08
45048,14.998,-12.54,-36.62,1.10E+08
45049,12.921,-6.5494,-47.878,1.49E+08
45050,10.292,-15.744,-47.05,8.08E+07
45051,9.2033,-5.942,-54.33,1.81E+08
45052,9.8239,-6.8283,-51.712,1.58E+08
45053,24.131,-6.9059,-44.821,1.35E+08
45054,25.047,-8.1728,-46.599,1.08E+08
45055,-0.28253,-9.9631,43.876,1.00E+08
45056,0.15046,-5.3079,45.453,1.45E+08
45057,-1.0096,-7.0647,46.795,1.41E+08
45058,0.41132,-8.9986,45.965,1.11E+08
45059,-2.5044,-7.1124,45.035,1.39E+08
45060,-1.5841,-13.643,45.507,1.03E+08
45061,0.30922,-11.651,45.755,9.52E+07
45062,1.4982,-13.803,43.432,7.94E+07
45063,-0.67874,-5.0622,48.161,1.81E+08
45064,-3.32E-02,-1.4149,47.964,2.61E+08
45065,-0.89021,-12.678,47.596,9.63E+07
45066,-5.4079,-16.66,47.644,1.06E+08
45067,-4.9494,-6.6863,50.442,2.17E+08
45068,-0.41788,-8.753,48.674,1.36E+08
45069,-3.3336,-6.8668,47.743,1.63E+08
45070,0.52387,20.591,62.405,3.09E+08
45071,2.692,21.247,60.21,3.32E+08
45072,-1.0138,29.488,78.741,6.37E+07
45073,1.1461,26.137,77.555,9.24E+07
45074,-15.406,-3.6286,-41.93,1.81E+08
45075,-16.549,-3.4253,-42.941,2.22E+08
45076,34.672,-31.557,-4.2492,1.11E+08
45077,34.234,-35.384,-7.2199,7.65E+07
45078,-2.2841,2.7079,49.495,3.69E+08
45079,25.636,-5.8289,-46.895,1.32E+08
45080,-45.027,-4.0182,-51.807,4.62E+06
45081,-43.322,-4.3481,-50.057,4.88E+06
45082,-47.923,-6.8628,-42.689,6.07E+06
45083,-18.569,-1.3534,-42.185,3.60E+08
45084,-19.914,-0.5436,-42.074,5.29E+08
45085,-15.187,-0.69628,-53.885,2.10E+08
45086,-18.273,12.855,-43.568,1.03E+08
45087,11.885,-7.3125,-53.189,1.53E+08
45088,-7.1739,-41.15,-34.15,2.86E+07
45089,-20.818,-38.231,-27.675,6.06E+07
45090,7.2466,-11.385,-46.903,1.40E+08
45091,-33.923,-38.951,6.821,8.24E+07
45092,-32.968,-39.274,9.683,8.39E+07
45093,9.4402,-29.948,-33.835,9.61E+07
45094,17.5,-37.191,-29.94,6.26E+07
45095,-27.789,-27.489,21.305,1.50E+08
45096,23.183,-33.82,-26.098,7.83E+07
45097,21.458,-39.921,-27.131,4.10E+07
45098,38.134,-2.7502,-21.212,2.13E+08
45099,37.66,-2.4888,-25.328,2.03E+08
45100,37.377,-2.3828,-28.929,1.86E+08
45101,24.311,-37.968,-24.97,5.18E+07
45102,35.506,-2.8138,-55.923,1.93E+07
45103,26.381,-39.974,-23.24,3.41E+07
45104,8.0526,37.341,-60.567,5.78E+06
45105,31.189,-37.783,-14.759,5.77E+07
45106,31.168,-39.737,-14.367,5.00E+07
45107,29.294,-39.631,-19.155,3.66E+07
45108,33.011,-37.317,-10.374,5.94E+07
45109,32.15,-37.895,-12.391,5.95E+07
45110,35.441,-24.484,-8.3634,1.36E+08
45111,-13.128,-2.2929,48.217,6.80E+08
45112,32.99,-39.271,-9.9814,5.11E+07
45113,34.154,-39.731,-8.9589,4.56E+07
45114,28.237,-22.212,23.774,2.64E+08
45115,16.965,-36.051,30.2,1.74E+08
45116,21.038,-36.083,27.631,1.93E+08
45117,18.993,-37.701,28.879,1.84E+08
45118,9.1847,-34.479,33.519,1.28E+08
45119,10.154,-32.227,33.405,1.28E+08
45120,11.696,-34.261,32.855,1.38E+08
45121,12.748,-36.298,32.088,1.56E+08
45122,10.381,-38.071,32.819,1.47E+08
45123,12.629,-38.094,32.033,1.54E+08
45124,-7.9172,7.2525,66.18,1.80E+08
45125,-6.2914,11.191,65.882,2.24E+08
45126,-7.0778,11.723,67.734,2.02E+08
45127,13.717,-34.046,31.975,1.59E+08
45128,14.65,-37.879,31.152,1.76E+08
45129,16.796,-37.734,29.887,1.87E+08
45130,38.147,-3.0746,7.1497,5.99E+07
45131,-6.4206,4.7583,69.075,1.38E+08
45132,30.638,-24.354,22.741,3.50E+08
45133,66.602,-12.362,17.872,6.97E+07
45134,64.702,-13.857,15.183,7.68E+07
45135,31.219,-38.234,14.933,1.07E+08
45136,31.248,-39.853,14.671,8.90E+07
45137,33.282,-40.084,10.022,6.98E+07
45138,30.184,-38.41,17.215,1.22E+08
45139,67.069,-13.884,20.07,6.79E+07
45140,69.947,-11.325,20.027,7.32E+07
45141,20.868,-37.766,27.318,1.98E+08
45142,64.347,-16.337,20.25,6.47E+07
45143,10.066,38.394,52.848,2.00E+08
45144,70.093,-10.235,6.8307,1.24E+08
45145,92.17,13.687,20.405,4.30E+07
45146,79.387,17.629,10.709,1.82E+07
45147,3.4717,51.56,107.36,3.99E+07
45148,5.9771,49.094,105.53,4.41E+07
45149,37.793,-18.632,-14.348,2.03E+08
45150,-16.663,-14.286,-49.981,1.20E+08
45151,-17.089,-15.306,-51.137,8.80E+07
45152,-6.7097,-10.696,64.944,4.01E+07
45153,60.653,8.6186,6.6103,5.85E+07
45154,59.121,6.5771,6.0327,5.56E+07
45155,90.164,10.825,20.481,4.90E+07
45156,86.721,7.9436,20.444,5.05E+07
45157,5.0681,48.312,102.85,4.59E+07
45158,-17.894,-16.27,-48.926,9.10E+07
45159,-51.768,-6.0251,-43.931,5.08E+06
45160,-4.7938,13.08,68.168,2.42E+08
45161,-1.5531,46.328,91.095,3.19E+07
45162,-0.5097,-3.4429,-49.717,1.92E+08
45163,-43.283,-5.2484,-51.693,5.11E+06
45164,36.705,-2.9554,-52.731,3.03E+07
45165,12.283,-39.652,31.883,1.67E+08
45166,8.3541,-40.069,32.965,1.54E+08
45167,16.677,-39.53,29.831,1.85E+08
45168,29.204,-40.554,18.284,1.04E+08
45169,-55.472,-2.3086,-31.552,1.13E+07
45170,-50.481,-8.4954,-33.481,5.19E+06
45171,-53.76,-10.014,-33.8,9.88E+06
45172,-17.018,-3.2189,-41.375,1.91E+08
45173,-10.449,-16.808,-43.496,8.52E+07
45174,-10.718,1.4389,-53.815,2.52E+08
45175,-31.637,-40.241,12.91,8.21E+07
45176,29.592,-14.437,-31.36,9.50E+07
45177,37.784,-2.3326,-48.546,5.31E+07
45178,37.756,-2.1234,-32.724,1.67E+08
45179,13.508,28.754,-60.658,1.20E+07
45180,37.449,-16.221,-6.276,1.43E+08
45181,37.616,-11.925,-5.3005,1.48E+08
45182,38.646,-13.269,-5.2743,1.89E+08
45183,-8.5079,-18.111,46.256,1.27E+08
45184,-10.115,-16.476,43.573,1.33E+08
45185,-8.8893,-38.257,32.797,7.98E+07
45186,-8.9905,-20.802,48.745,9.49E+07
45187,59.438,-8.0662,7.3727,7.28E+07
45188,0.32789,-14.109,62.667,6.35E+07
45189,10.516,28.605,68.396,4.77E+08
45190,74.594,-5.7092,19.958,7.12E+07
45191,72.395,-8.7326,20.339,7.40E+07
45192,75.112,-1.4503,15.524,6.55E+07
45193,86.147,6.8689,6.6558,9.64E+07
45194,91.097,16.015,7.0864,6.20E+07
45195,-7.5124,56.606,116.54,7.24E+06
45196,6.5487,-16.229,-40.376,1.10E+08
45197,88.126,31.096,19.199,3.00E+07
45198,33.293,-40.31,-10.976,4.06E+07
45199,74.665,-3.4226,17.514,6.74E+07
45200,-79.844,-9.3183,-59.971,6.41E+05
45201,-77.536,-8.317,-57.879,1.46E+06
45202,4.8668,-41.072,-34.614,3.02E+07
45203,-10.394,-43.809,-33.9,1.98E+07
45204,-10.92,-46.193,-33.321,1.39E+07
45205,-3.749,-46.689,-34.924,6.74E+06
45206,-1.3601,-46.673,-35.018,7.43E+06
45207,37.452,-11.055,-55.997,1.10E+07
45208,34.392,-14.911,1.4911,1.28E+08
45209,34.638,-40.499,5.3484,6.39E+07
45210,-4.8587,-11.013,65.85,7.68E+07
45211,12.309,-47.271,32.994,2.21E+07
45212,-52.853,-9.235,84.603,2.45E+07
45213,-10.991,33.388,116.03,5.55E+06
45214,-7.335,-12.147,-55.546,1.33E+08
45215,9.5307,-15.609,-38.149,1.02E+08
45216,38.648,-11.158,-5.502,1.98E+08
45217,-10.26,55.698,115.1,9.22E+06
45218,-30.138,-11.257,-22.197,1.91E+08
45219,13.081,-15.038,-36.76,1.03E+08
45220,-19.506,-2.2059,-42.275,4.30E+08
45221,-9.8627,49.571,76.026,3.03E+07
