Node Number,LOCX (),LOCY (),LOCZ(),Equivalent (von-Mises) Stress (Pa)
1,237.5,37.5,37.5,2.41E+06
2,237.5,37.5,25,2.32E+06
3,237.5,37.5,12.5,2.41E+06
4,237.5,25,37.5,3.94E+06
5,237.5,25,25,3.86E+06
6,237.5,25,12.5,3.94E+06
7,237.5,12.5,37.5,4.41E+06
8,237.5,12.5,25,4.47E+06
9,237.5,12.5,12.5,4.41E+06
10,225,37.5,37.5,3.49E+06
11,225,37.5,25,3.33E+06
12,225,37.5,12.5,3.49E+06
13,225,25,37.5,3.50E+06
14,225,25,25,3.28E+06
15,225,25,12.5,3.50E+06
16,225,12.5,37.5,2.37E+06
17,225,12.5,25,2.28E+06
18,225,12.5,12.5,2.37E+06
19,212.5,37.5,37.5,3.89E+06
20,212.5,37.5,25,3.75E+06
21,212.5,37.5,12.5,3.89E+06
22,212.5,25,37.5,3.21E+06
23,212.5,25,25,3.02E+06
24,212.5,25,12.5,3.21E+06
25,212.5,12.5,37.5,3.28E+06
26,212.5,12.5,25,3.27E+06
27,212.5,12.5,12.5,3.28E+06
28,200,37.5,37.5,4.40E+06
29,200,37.5,25,4.31E+06
30,200,37.5,12.5,4.40E+06
31,200,25,37.5,3.16E+06
32,200,25,25,3.00E+06
33,200,25,12.5,3.16E+06
34,200,12.5,37.5,4.24E+06
35,200,12.5,25,4.22E+06
36,200,12.5,12.5,4.24E+06
37,187.5,37.5,37.5,5.10E+06
38,187.5,37.5,25,5.04E+06
39,187.5,37.5,12.5,5.10E+06
40,187.5,25,37.5,3.16E+06
41,187.5,25,25,3.00E+06
42,187.5,25,12.5,3.16E+06
43,187.5,12.5,37.5,5.07E+06
44,187.5,12.5,25,5.03E+06
45,187.5,12.5,12.5,5.07E+06
46,175,37.5,37.5,5.90E+06
47,175,37.5,25,5.85E+06
48,175,37.5,12.5,5.90E+06
49,175,25,37.5,3.16E+06
50,175,25,25,3.00E+06
51,175,25,12.5,3.16E+06
52,175,12.5,37.5,5.90E+06
53,175,12.5,25,5.85E+06
54,175,12.5,12.5,5.90E+06
55,162.5,37.5,37.5,6.73E+06
56,162.5,37.5,25,6.69E+06
57,162.5,37.5,12.5,6.73E+06
58,162.5,25,37.5,3.16E+06
59,162.5,25,25,3.00E+06
60,162.5,25,12.5,3.16E+06
61,162.5,12.5,37.5,6.73E+06
62,162.5,12.5,25,6.69E+06
63,162.5,12.5,12.5,6.73E+06
64,150,37.5,37.5,7.58E+06
65,150,37.5,25,7.54E+06
66,150,37.5,12.5,7.58E+06
67,150,25,37.5,3.16E+06
68,150,25,25,3.00E+06
69,150,25,12.5,3.16E+06
70,150,12.5,37.5,7.58E+06
71,150,12.5,25,7.54E+06
72,150,12.5,12.5,7.58E+06
73,137.5,37.5,37.5,8.44E+06
74,137.5,37.5,25,8.41E+06
75,137.5,37.5,12.5,8.44E+06
76,137.5,25,37.5,3.16E+06
77,137.5,25,25,3.00E+06
78,137.5,25,12.5,3.16E+06
79,137.5,12.5,37.5,8.44E+06
80,137.5,12.5,25,8.41E+06
81,137.5,12.5,12.5,8.44E+06
82,125,37.5,37.5,9.31E+06
83,125,37.5,25,9.28E+06
84,125,37.5,12.5,9.31E+06
85,125,25,37.5,3.16E+06
86,125,25,25,3.00E+06
87,125,25,12.5,3.16E+06
88,125,12.5,37.5,9.31E+06
89,125,12.5,25,9.28E+06
90,125,12.5,12.5,9.31E+06
91,112.5,37.5,37.5,1.02E+07
92,112.5,37.5,25,1.02E+07
93,112.5,37.5,12.5,1.02E+07
94,112.5,25,37.5,3.16E+06
95,112.5,25,25,3.00E+06
96,112.5,25,12.5,3.16E+06
97,112.5,12.5,37.5,1.02E+07
98,112.5,12.5,25,1.02E+07
99,112.5,12.5,12.5,1.02E+07
100,100,37.5,37.5,1.11E+07
101,100,37.5,25,1.10E+07
102,100,37.5,12.5,1.11E+07
103,100,25,37.5,3.16E+06
104,100,25,25,3.00E+06
105,100,25,12.5,3.16E+06
106,100,12.5,37.5,1.11E+07
107,100,12.5,25,1.10E+07
108,100,12.5,12.5,1.11E+07
109,87.5,37.5,37.5,1.19E+07
110,87.5,37.5,25,1.19E+07
111,87.5,37.5,12.5,1.19E+07
112,87.5,25,37.5,3.16E+06
113,87.5,25,25,3.00E+06
114,87.5,25,12.5,3.16E+06
115,87.5,12.5,37.5,1.19E+07
116,87.5,12.5,25,1.19E+07
117,87.5,12.5,12.5,1.19E+07
118,75,37.5,37.5,1.28E+07
119,75,37.5,25,1.28E+07
120,75,37.5,12.5,1.28E+07
121,75,25,37.5,3.16E+06
122,75,25,25,3.00E+06
123,75,25,12.5,3.16E+06
124,75,12.5,37.5,1.28E+07
125,75,12.5,25,1.28E+07
126,75,12.5,12.5,1.28E+07
127,62.5,37.5,37.5,1.37E+07
128,62.5,37.5,25,1.37E+07
129,62.5,37.5,12.5,1.37E+07
130,62.5,25,37.5,3.15E+06
131,62.5,25,25,3.02E+06
132,62.5,25,12.5,3.15E+06
133,62.5,12.5,37.5,1.37E+07
134,62.5,12.5,25,1.37E+07
135,62.5,12.5,12.5,1.37E+07
136,50,37.5,37.5,1.46E+07
137,50,37.5,25,1.47E+07
138,50,37.5,12.5,1.46E+07
139,50,25,37.5,3.15E+06
140,50,25,25,3.09E+06
141,50,25,12.5,3.15E+06
142,50,12.5,37.5,1.46E+07
143,50,12.5,25,1.47E+07
144,50,12.5,12.5,1.46E+07
145,37.5,37.5,37.5,1.55E+07
146,37.5,37.5,25,1.57E+07
147,37.5,37.5,12.5,1.55E+07
148,37.5,25,37.5,3.24E+06
149,37.5,25,25,3.38E+06
150,37.5,25,12.5,3.24E+06
151,37.5,12.5,37.5,1.55E+07
152,37.5,12.5,25,1.57E+07
153,37.5,12.5,12.5,1.55E+07
154,25,37.5,37.5,1.69E+07
155,25,37.5,25,1.71E+07
156,25,37.5,12.5,1.69E+07
157,25,25,37.5,3.40E+06
158,25,25,25,3.91E+06
159,25,25,12.5,3.40E+06
160,25,12.5,37.5,1.69E+07
161,25,12.5,25,1.71E+07
162,25,12.5,12.5,1.69E+07
163,12.5,37.5,37.5,1.78E+07
164,12.5,37.5,25,1.74E+07
165,12.5,37.5,12.5,1.78E+07
166,12.5,25,37.5,4.47E+06
167,12.5,25,25,5.32E+06
168,12.5,25,12.5,4.47E+06
169,12.5,12.5,37.5,1.78E+07
170,12.5,12.5,25,1.74E+07
171,12.5,12.5,12.5,1.78E+07
172,12.5,12.5,50,1.70E+07
173,12.5,25,50,1.44E+06
174,12.5,37.5,50,1.70E+07
175,25,12.5,50,1.56E+07
176,25,25,50,2.43E+06
177,25,37.5,50,1.56E+07
178,37.5,12.5,50,1.52E+07
179,37.5,25,50,3.29E+06
180,37.5,37.5,50,1.52E+07
181,50,12.5,50,1.46E+07
182,50,25,50,3.55E+06
183,50,37.5,50,1.46E+07
184,62.5,12.5,50,1.38E+07
185,62.5,25,50,3.65E+06
186,62.5,37.5,50,1.38E+07
187,75,12.5,50,1.29E+07
188,75,25,50,3.67E+06
189,75,37.5,50,1.29E+07
190,87.5,12.5,50,1.20E+07
191,87.5,25,50,3.68E+06
192,87.5,37.5,50,1.20E+07
193,100,12.5,50,1.12E+07
194,100,25,50,3.68E+06
195,100,37.5,50,1.12E+07
196,112.5,12.5,50,1.03E+07
197,112.5,25,50,3.68E+06
198,112.5,37.5,50,1.03E+07
199,125,12.5,50,9.45E+06
200,125,25,50,3.68E+06
201,125,37.5,50,9.45E+06
202,137.5,12.5,50,8.60E+06
203,137.5,25,50,3.68E+06
204,137.5,37.5,50,8.59E+06
205,150,12.5,50,7.76E+06
206,150,25,50,3.68E+06
207,150,37.5,50,7.75E+06
208,162.5,12.5,50,6.93E+06
209,162.5,25,50,3.68E+06
210,162.5,37.5,50,6.92E+06
211,175,12.5,50,6.12E+06
212,175,25,50,3.68E+06
213,175,37.5,50,6.11E+06
214,187.5,12.5,50,5.31E+06
215,187.5,25,50,3.68E+06
216,187.5,37.5,50,5.37E+06
217,200,12.5,50,4.46E+06
218,200,25,50,3.68E+06
219,200,37.5,50,4.76E+06
220,212.5,12.5,50,3.36E+06
221,212.5,25,50,3.79E+06
222,212.5,37.5,50,4.43E+06
223,225,12.5,50,2.44E+06
224,225,25,50,4.30E+06
225,225,37.5,50,4.24E+06
226,237.5,12.5,50,6.08E+06
227,237.5,25,50,4.95E+06
228,237.5,37.5,50,3.16E+06
229,237.5,37.5,0,3.16E+06
230,237.5,25,0,4.95E+06
231,237.5,12.5,0,6.08E+06
232,225,37.5,0,4.24E+06
233,225,25,0,4.30E+06
234,225,12.5,0,2.44E+06
235,212.5,37.5,0,4.43E+06
236,212.5,25,0,3.79E+06
237,212.5,12.5,0,3.36E+06
238,200,37.5,0,4.76E+06
239,200,25,0,3.68E+06
240,200,12.5,0,4.46E+06
241,187.5,37.5,0,5.37E+06
242,187.5,25,0,3.68E+06
243,187.5,12.5,0,5.31E+06
244,175,37.5,0,6.11E+06
245,175,25,0,3.68E+06
246,175,12.5,0,6.12E+06
247,162.5,37.5,0,6.92E+06
248,162.5,25,0,3.68E+06
249,162.5,12.5,0,6.93E+06
250,150,37.5,0,7.75E+06
251,150,25,0,3.68E+06
252,150,12.5,0,7.76E+06
253,137.5,37.5,0,8.59E+06
254,137.5,25,0,3.68E+06
255,137.5,12.5,0,8.60E+06
256,125,37.5,0,9.45E+06
257,125,25,0,3.68E+06
258,125,12.5,0,9.45E+06
259,112.5,37.5,0,1.03E+07
260,112.5,25,0,3.68E+06
261,112.5,12.5,0,1.03E+07
262,100,37.5,0,1.12E+07
263,100,25,0,3.68E+06
264,100,12.5,0,1.12E+07
265,87.5,37.5,0,1.20E+07
266,87.5,25,0,3.68E+06
267,87.5,12.5,0,1.20E+07
268,75,37.5,0,1.29E+07
269,75,25,0,3.67E+06
270,75,12.5,0,1.29E+07
271,62.5,37.5,0,1.38E+07
272,62.5,25,0,3.65E+06
273,62.5,12.5,0,1.38E+07
274,50,37.5,0,1.46E+07
275,50,25,0,3.55E+06
276,50,12.5,0,1.46E+07
277,37.5,37.5,0,1.52E+07
278,37.5,25,0,3.29E+06
279,37.5,12.5,0,1.52E+07
280,25,37.5,0,1.56E+07
281,25,25,0,2.43E+06
282,25,12.5,0,1.56E+07
283,12.5,37.5,0,1.70E+07
284,12.5,25,0,1.44E+06
285,12.5,12.5,0,1.70E+07
286,0,37.5,0,1.74E+07
287,0,25,0,6.59E+06
288,0,12.5,0,1.74E+07
289,250,37.5,0,7.28E+05
290,250,25,0,3.32E+06
291,250,12.5,0,8.96E+06
292,0,50,0,3.74E+07
293,12.5,50,0,3.45E+07
294,25,50,0,3.08E+07
295,37.5,50,0,3.04E+07
296,50,50,0,2.87E+07
297,62.5,50,0,2.70E+07
298,75,50,0,2.52E+07
299,87.5,50,0,2.34E+07
300,100,50,0,2.16E+07
301,112.5,50,0,1.98E+07
302,125,50,0,1.80E+07
303,137.5,50,0,1.62E+07
304,150,50,0,1.44E+07
305,162.5,50,0,1.26E+07
306,175,50,0,1.08E+07
307,187.5,50,0,9.00E+06
308,200,50,0,7.14E+06
309,212.5,50,0,5.13E+06
310,225,50,0,2.84E+06
311,237.5,50,0,6.40E+05
312,250,50,0,2.82E+05
313,0,0,0,3.74E+07
314,12.5,0,0,3.45E+07
315,25,0,0,3.08E+07
316,37.5,0,0,3.04E+07
317,50,0,0,2.87E+07
318,62.5,0,0,2.70E+07
319,75,0,0,2.52E+07
320,87.5,0,0,2.34E+07
321,100,0,0,2.16E+07
322,112.5,0,0,1.98E+07
323,125,0,0,1.80E+07
324,137.5,0,0,1.62E+07
325,150,0,0,1.44E+07
326,162.5,0,0,1.26E+07
327,175,0,0,1.08E+07
328,187.5,0,0,9.01E+06
329,200,0,0,7.24E+06
330,212.5,0,0,5.59E+06
331,225,0,0,4.48E+06
332,237.5,0,0,7.26E+06
333,250,0,0,2.57E+07
334,237.5,0,37.5,6.28E+06
335,225,0,37.5,5.19E+06
336,212.5,0,37.5,5.72E+06
337,200,0,37.5,7.30E+06
338,187.5,0,37.5,9.00E+06
339,175,0,37.5,1.08E+07
340,162.5,0,37.5,1.26E+07
341,150,0,37.5,1.44E+07
342,137.5,0,37.5,1.62E+07
343,125,0,37.5,1.80E+07
344,112.5,0,37.5,1.98E+07
345,100,0,37.5,2.16E+07
346,87.5,0,37.5,2.34E+07
347,75,0,37.5,2.52E+07
348,62.5,0,37.5,2.70E+07
349,50,0,37.5,2.88E+07
350,37.5,0,37.5,3.07E+07
351,25,0,37.5,3.23E+07
352,12.5,0,37.5,3.52E+07
353,237.5,0,25,5.52E+06
354,225,0,25,5.34E+06
355,212.5,0,25,5.91E+06
356,200,0,25,7.36E+06
357,187.5,0,25,9.02E+06
358,175,0,25,1.08E+07
359,162.5,0,25,1.26E+07
360,150,0,25,1.44E+07
361,137.5,0,25,1.62E+07
362,125,0,25,1.80E+07
363,112.5,0,25,1.98E+07
364,100,0,25,2.16E+07
365,87.5,0,25,2.34E+07
366,75,0,25,2.52E+07
367,62.5,0,25,2.70E+07
368,50,0,25,2.89E+07
369,37.5,0,25,3.09E+07
370,25,0,25,3.21E+07
371,12.5,0,25,3.40E+07
372,237.5,0,12.5,6.28E+06
373,225,0,12.5,5.19E+06
374,212.5,0,12.5,5.72E+06
375,200,0,12.5,7.30E+06
376,187.5,0,12.5,9.00E+06
377,175,0,12.5,1.08E+07
378,162.5,0,12.5,1.26E+07
379,150,0,12.5,1.44E+07
380,137.5,0,12.5,1.62E+07
381,125,0,12.5,1.80E+07
382,112.5,0,12.5,1.98E+07
383,100,0,12.5,2.16E+07
384,87.5,0,12.5,2.34E+07
385,75,0,12.5,2.52E+07
386,62.5,0,12.5,2.70E+07
387,50,0,12.5,2.88E+07
388,37.5,0,12.5,3.07E+07
389,25,0,12.5,3.23E+07
390,12.5,0,12.5,3.52E+07
391,237.5,0,50,7.26E+06
392,225,0,50,4.48E+06
393,212.5,0,50,5.59E+06
394,200,0,50,7.24E+06
395,187.5,0,50,9.01E+06
396,175,0,50,1.08E+07
397,162.5,0,50,1.26E+07
398,150,0,50,1.44E+07
399,137.5,0,50,1.62E+07
400,125,0,50,1.80E+07
401,112.5,0,50,1.98E+07
402,100,0,50,2.16E+07
403,87.5,0,50,2.34E+07
404,75,0,50,2.52E+07
405,62.5,0,50,2.70E+07
406,50,0,50,2.87E+07
407,37.5,0,50,3.04E+07
408,25,0,50,3.08E+07
409,12.5,0,50,3.45E+07
410,0,0,12.5,2.85E+07
411,0,0,25,2.97E+07
412,0,0,37.5,2.85E+07
413,0,0,50,3.74E+07
414,250,0,12.5,2.59E+07
415,250,0,25,2.55E+07
416,250,0,37.5,2.59E+07
417,250,0,50,2.57E+07
418,237.5,50,37.5,6.64E+05
419,237.5,50,25,7.38E+05
420,237.5,50,12.5,6.64E+05
421,225,50,37.5,2.74E+06
422,225,50,25,2.70E+06
423,225,50,12.5,2.74E+06
424,212.5,50,37.5,5.07E+06
425,212.5,50,25,5.00E+06
426,212.5,50,12.5,5.07E+06
427,200,50,37.5,7.13E+06
428,200,50,25,7.09E+06
429,200,50,12.5,7.13E+06
430,187.5,50,37.5,9.00E+06
431,187.5,50,25,8.99E+06
432,187.5,50,12.5,9.00E+06
433,175,50,37.5,1.08E+07
434,175,50,25,1.08E+07
435,175,50,12.5,1.08E+07
436,162.5,50,37.5,1.26E+07
437,162.5,50,25,1.26E+07
438,162.5,50,12.5,1.26E+07
439,150,50,37.5,1.44E+07
440,150,50,25,1.44E+07
441,150,50,12.5,1.44E+07
442,137.5,50,37.5,1.62E+07
443,137.5,50,25,1.62E+07
444,137.5,50,12.5,1.62E+07
445,125,50,37.5,1.80E+07
446,125,50,25,1.80E+07
447,125,50,12.5,1.80E+07
448,112.5,50,37.5,1.98E+07
449,112.5,50,25,1.98E+07
450,112.5,50,12.5,1.98E+07
451,100,50,37.5,2.16E+07
452,100,50,25,2.16E+07
453,100,50,12.5,2.16E+07
454,87.5,50,37.5,2.34E+07
455,87.5,50,25,2.34E+07
456,87.5,50,12.5,2.34E+07
457,75,50,37.5,2.52E+07
458,75,50,25,2.52E+07
459,75,50,12.5,2.52E+07
460,62.5,50,37.5,2.70E+07
461,62.5,50,25,2.70E+07
462,62.5,50,12.5,2.70E+07
463,50,50,37.5,2.88E+07
464,50,50,25,2.89E+07
465,50,50,12.5,2.88E+07
466,37.5,50,37.5,3.07E+07
467,37.5,50,25,3.09E+07
468,37.5,50,12.5,3.07E+07
469,25,50,37.5,3.23E+07
470,25,50,25,3.21E+07
471,25,50,12.5,3.23E+07
472,12.5,50,37.5,3.52E+07
473,12.5,50,25,3.40E+07
474,12.5,50,12.5,3.52E+07
475,237.5,50,50,6.40E+05
476,225,50,50,2.84E+06
477,212.5,50,50,5.13E+06
478,200,50,50,7.14E+06
479,187.5,50,50,9.00E+06
480,175,50,50,1.08E+07
481,162.5,50,50,1.26E+07
482,150,50,50,1.44E+07
483,137.5,50,50,1.62E+07
484,125,50,50,1.80E+07
485,112.5,50,50,1.98E+07
486,100,50,50,2.16E+07
487,87.5,50,50,2.34E+07
488,75,50,50,2.52E+07
489,62.5,50,50,2.70E+07
490,50,50,50,2.87E+07
491,37.5,50,50,3.04E+07
492,25,50,50,3.08E+07
493,12.5,50,50,3.45E+07
494,0,50,50,3.74E+07
495,0,50,37.5,2.85E+07
496,0,50,25,2.97E+07
497,0,50,12.5,2.85E+07
498,250,50,50,2.82E+05
499,250,50,37.5,99341
500,250,50,25,2.48E+05
501,250,50,12.5,99341
502,250,37.5,37.5,8.58E+05
503,250,25,37.5,3.53E+06
504,250,12.5,37.5,8.87E+06
505,250,37.5,25,9.38E+05
506,250,25,25,3.62E+06
507,250,12.5,25,8.07E+06
508,250,37.5,12.5,8.58E+05
509,250,25,12.5,3.53E+06
510,250,12.5,12.5,8.87E+06
511,250,37.5,50,7.28E+05
512,250,25,50,3.32E+06
513,250,12.5,50,8.96E+06
514,0,37.5,12.5,9.15E+06
515,0,25,12.5,1.40E+06
516,0,12.5,12.5,9.15E+06
517,0,37.5,25,9.03E+06
518,0,25,25,1.12E+06
519,0,12.5,25,9.03E+06
520,0,37.5,37.5,9.15E+06
521,0,25,37.5,1.40E+06
522,0,12.5,37.5,9.15E+06
523,0,37.5,50,1.74E+07
524,0,25,50,6.59E+06
525,0,12.5,50,1.74E+07
526,237.5,37.5,31.3,2.37E+06
527,237.5,31.3,37.5,3.13E+06
528,231.25,37.5,37.5,2.90E+06
529,237.5,37.5,43.8,2.79E+06
530,237.5,43.8,37.5,1.35E+06
531,243.75,37.5,37.5,1.31E+06
532,237.5,37.5,18.8,2.37E+06
533,237.5,31.3,25,3.04E+06
534,231.25,37.5,25,2.77E+06
535,237.5,43.8,25,1.33E+06
536,243.75,37.5,25,1.30E+06
537,237.5,31.3,12.5,3.13E+06
538,231.25,37.5,12.5,2.90E+06
539,237.5,37.5,6.25,2.79E+06
540,237.5,43.8,12.5,1.35E+06
541,243.75,37.5,12.5,1.31E+06
542,237.5,25,31.3,3.89E+06
543,237.5,18.8,37.5,3.88E+06
544,231.25,25,37.5,3.60E+06
545,237.5,25,43.8,4.43E+06
546,243.75,25,37.5,3.37E+06
547,237.5,25,18.8,3.89E+06
548,237.5,18.8,25,3.83E+06
549,231.25,25,25,3.45E+06
550,243.75,25,25,3.39E+06
551,237.5,18.8,12.5,3.88E+06
552,231.25,25,12.5,3.60E+06
553,237.5,25,6.25,4.43E+06
554,243.75,25,12.5,3.37E+06
555,237.5,12.5,31.3,4.43E+06
556,231.25,12.5,37.5,2.94E+06
557,237.5,12.5,43.8,5.23E+06
558,237.5,6.25,37.5,1.73E+06
559,243.75,12.5,37.5,4.58E+06
560,237.5,12.5,18.8,4.43E+06
561,231.25,12.5,25,2.82E+06
562,237.5,6.25,25,1.08E+06
563,243.75,12.5,25,4.19E+06
564,231.25,12.5,12.5,2.94E+06
565,237.5,12.5,6.25,5.23E+06
566,237.5,6.25,12.5,1.73E+06
567,243.75,12.5,12.5,4.58E+06
568,225,37.5,31.3,3.41E+06
569,225,31.3,37.5,3.44E+06
570,218.75,37.5,37.5,3.66E+06
571,225,37.5,43.8,3.86E+06
572,225,43.8,37.5,2.76E+06
573,225,37.5,18.8,3.41E+06
574,225,31.3,25,3.25E+06
575,218.75,37.5,25,3.51E+06
576,225,43.8,25,2.68E+06
577,225,31.3,12.5,3.44E+06
578,218.75,37.5,12.5,3.66E+06
579,225,37.5,6.25,3.86E+06
580,225,43.8,12.5,2.76E+06
581,225,25,31.3,3.39E+06
582,225,18.8,37.5,2.71E+06
583,218.75,25,37.5,3.35E+06
584,225,25,43.8,3.90E+06
585,225,25,18.8,3.39E+06
586,225,18.8,25,2.51E+06
587,218.75,25,25,3.15E+06
588,225,18.8,12.5,2.71E+06
589,218.75,25,12.5,3.35E+06
590,225,25,6.25,3.90E+06
591,225,12.5,31.3,2.32E+06
592,218.75,12.5,37.5,2.79E+06
593,225,12.5,43.8,2.38E+06
594,225,6.25,37.5,3.27E+06
595,225,12.5,18.8,2.32E+06
596,218.75,12.5,25,2.75E+06
597,225,6.25,25,3.40E+06
598,218.75,12.5,12.5,2.79E+06
599,225,12.5,6.25,2.38E+06
600,225,6.25,12.5,3.27E+06
601,212.5,37.5,31.3,3.82E+06
602,212.5,31.3,37.5,3.35E+06
603,206.25,37.5,37.5,4.13E+06
604,212.5,37.5,43.8,4.15E+06
605,212.5,43.8,37.5,4.17E+06
606,212.5,37.5,18.8,3.82E+06
607,212.5,31.3,25,3.18E+06
608,206.25,37.5,25,4.02E+06
609,212.5,43.8,25,4.09E+06
610,212.5,31.3,12.5,3.35E+06
611,206.25,37.5,12.5,4.13E+06
612,212.5,37.5,6.25,4.15E+06
613,212.5,43.8,12.5,4.17E+06
614,212.5,25,31.3,3.12E+06
615,212.5,18.8,37.5,2.82E+06
616,206.25,25,37.5,3.18E+06
617,212.5,25,43.8,3.50E+06
618,212.5,25,18.8,3.12E+06
619,212.5,18.8,25,2.71E+06
620,206.25,25,25,3.01E+06
621,212.5,18.8,12.5,2.82E+06
622,206.25,25,12.5,3.18E+06
623,212.5,25,6.25,3.50E+06
624,212.5,12.5,31.3,3.28E+06
625,206.25,12.5,37.5,3.75E+06
626,212.5,12.5,43.8,3.32E+06
627,212.5,6.25,37.5,4.29E+06
628,212.5,12.5,18.8,3.28E+06
629,206.25,12.5,25,3.74E+06
630,212.5,6.25,25,4.41E+06
631,206.25,12.5,12.5,3.75E+06
632,212.5,12.5,6.25,3.32E+06
633,212.5,6.25,12.5,4.29E+06
634,200,37.5,31.3,4.36E+06
635,200,31.3,37.5,3.39E+06
636,193.75,37.5,37.5,4.75E+06
637,200,37.5,43.8,4.58E+06
638,200,43.8,37.5,5.53E+06
639,200,37.5,18.8,4.36E+06
640,200,31.3,25,3.26E+06
641,193.75,37.5,25,4.67E+06
642,200,43.8,25,5.48E+06
643,200,31.3,12.5,3.39E+06
644,193.75,37.5,12.5,4.75E+06
645,200,37.5,6.25,4.58E+06
646,200,43.8,12.5,5.53E+06
647,200,25,31.3,3.08E+06
648,200,18.8,37.5,3.21E+06
649,193.75,25,37.5,3.16E+06
650,200,25,43.8,3.42E+06
651,200,25,18.8,3.08E+06
652,200,18.8,25,3.12E+06
653,193.75,25,25,3.00E+06
654,200,18.8,12.5,3.21E+06
655,193.75,25,12.5,3.16E+06
656,200,25,6.25,3.42E+06
657,200,12.5,31.3,4.23E+06
658,193.75,12.5,37.5,4.65E+06
659,200,12.5,43.8,4.34E+06
660,200,6.25,37.5,5.56E+06
661,200,12.5,18.8,4.23E+06
662,193.75,12.5,25,4.62E+06
663,200,6.25,25,5.60E+06
664,193.75,12.5,12.5,4.65E+06
665,200,12.5,6.25,4.34E+06
666,200,6.25,12.5,5.56E+06
667,187.5,37.5,31.3,5.07E+06
668,187.5,31.3,37.5,3.59E+06
669,181.25,37.5,37.5,5.50E+06
670,187.5,37.5,43.8,5.23E+06
671,187.5,43.8,37.5,6.87E+06
672,187.5,37.5,18.8,5.07E+06
673,187.5,31.3,25,3.47E+06
674,181.25,37.5,25,5.44E+06
675,187.5,43.8,25,6.85E+06
676,187.5,31.3,12.5,3.59E+06
677,181.25,37.5,12.5,5.50E+06
678,187.5,37.5,6.25,5.23E+06
679,187.5,43.8,12.5,6.87E+06
680,187.5,25,31.3,3.08E+06
681,187.5,18.8,37.5,3.54E+06
682,181.25,25,37.5,3.16E+06
683,187.5,25,43.8,3.42E+06
684,187.5,25,18.8,3.08E+06
685,187.5,18.8,25,3.44E+06
686,181.25,25,25,3.00E+06
687,187.5,18.8,12.5,3.54E+06
688,181.25,25,12.5,3.16E+06
689,187.5,25,6.25,3.42E+06
690,187.5,12.5,31.3,5.05E+06
691,181.25,12.5,37.5,5.48E+06
692,187.5,12.5,43.8,5.19E+06
693,187.5,6.25,37.5,6.86E+06
694,187.5,12.5,18.8,5.05E+06
695,181.25,12.5,25,5.44E+06
696,187.5,6.25,25,6.86E+06
697,181.25,12.5,12.5,5.48E+06
698,187.5,12.5,6.25,5.19E+06
699,187.5,6.25,12.5,6.86E+06
700,175,37.5,31.3,5.88E+06
701,175,31.3,37.5,3.87E+06
702,168.75,37.5,37.5,6.31E+06
703,175,37.5,43.8,6.00E+06
704,175,43.8,37.5,8.20E+06
705,175,37.5,18.8,5.88E+06
706,175,31.3,25,3.77E+06
707,168.75,37.5,25,6.27E+06
708,175,43.8,25,8.19E+06
709,175,31.3,12.5,3.87E+06
710,168.75,37.5,12.5,6.31E+06
711,175,37.5,6.25,6.00E+06
712,175,43.8,12.5,8.20E+06
713,175,25,31.3,3.08E+06
714,175,18.8,37.5,3.86E+06
715,168.75,25,37.5,3.16E+06
716,175,25,43.8,3.42E+06
717,175,25,18.8,3.08E+06
718,175,18.8,25,3.77E+06
719,168.75,25,25,3.00E+06
720,175,18.8,12.5,3.86E+06
721,168.75,25,12.5,3.16E+06
722,175,25,6.25,3.42E+06
723,175,12.5,31.3,5.88E+06
724,168.75,12.5,37.5,6.31E+06
725,175,12.5,43.8,6.01E+06
726,175,6.25,37.5,8.19E+06
727,175,12.5,18.8,5.88E+06
728,168.75,12.5,25,6.27E+06
729,175,6.25,25,8.18E+06
730,168.75,12.5,12.5,6.31E+06
731,175,12.5,6.25,6.01E+06
732,175,6.25,12.5,8.19E+06
733,162.5,37.5,31.3,6.71E+06
734,162.5,31.3,37.5,4.19E+06
735,156.25,37.5,37.5,7.15E+06
736,162.5,37.5,43.8,6.82E+06
737,162.5,43.8,37.5,9.54E+06
738,162.5,37.5,18.8,6.71E+06
739,162.5,31.3,25,4.10E+06
740,156.25,37.5,25,7.12E+06
741,162.5,43.8,25,9.53E+06
742,162.5,31.3,12.5,4.19E+06
743,156.25,37.5,12.5,7.15E+06
744,162.5,37.5,6.25,6.82E+06
745,162.5,43.8,12.5,9.54E+06
746,162.5,25,31.3,3.08E+06
747,162.5,18.8,37.5,4.19E+06
748,156.25,25,37.5,3.16E+06
749,162.5,25,43.8,3.42E+06
750,162.5,25,18.8,3.08E+06
751,162.5,18.8,25,4.10E+06
752,156.25,25,25,3.00E+06
753,162.5,18.8,12.5,4.19E+06
754,156.25,25,12.5,3.16E+06
755,162.5,25,6.25,3.42E+06
756,162.5,12.5,31.3,6.71E+06
757,156.25,12.5,37.5,7.16E+06
758,162.5,12.5,43.8,6.83E+06
759,162.5,6.25,37.5,9.53E+06
760,162.5,12.5,18.8,6.71E+06
761,156.25,12.5,25,7.12E+06
762,162.5,6.25,25,9.52E+06
763,156.25,12.5,12.5,7.16E+06
764,162.5,12.5,6.25,6.83E+06
765,162.5,6.25,12.5,9.53E+06
766,150,37.5,31.3,7.56E+06
767,150,31.3,37.5,4.54E+06
768,143.75,37.5,37.5,8.01E+06
769,150,37.5,43.8,7.66E+06
770,150,43.8,37.5,1.09E+07
771,150,37.5,18.8,7.56E+06
772,150,31.3,25,4.46E+06
773,143.75,37.5,25,7.98E+06
774,150,43.8,25,1.09E+07
775,150,31.3,12.5,4.54E+06
776,143.75,37.5,12.5,8.01E+06
777,150,37.5,6.25,7.66E+06
778,150,43.8,12.5,1.09E+07
779,150,25,31.3,3.08E+06
780,150,18.8,37.5,4.54E+06
781,143.75,25,37.5,3.16E+06
782,150,25,43.8,3.42E+06
783,150,25,18.8,3.08E+06
784,150,18.8,25,4.46E+06
785,143.75,25,25,3.00E+06
786,150,18.8,12.5,4.54E+06
787,143.75,25,12.5,3.16E+06
788,150,25,6.25,3.42E+06
789,150,12.5,31.3,7.56E+06
790,143.75,12.5,37.5,8.01E+06
791,150,12.5,43.8,7.67E+06
792,150,6.25,37.5,1.09E+07
793,150,12.5,18.8,7.56E+06
794,143.75,12.5,25,7.97E+06
795,150,6.25,25,1.09E+07
796,143.75,12.5,12.5,8.01E+06
797,150,12.5,6.25,7.67E+06
798,150,6.25,12.5,1.09E+07
799,137.5,37.5,31.3,8.42E+06
800,137.5,31.3,37.5,4.90E+06
801,131.25,37.5,37.5,8.87E+06
802,137.5,37.5,43.8,8.51E+06
803,137.5,43.8,37.5,1.22E+07
804,137.5,37.5,18.8,8.42E+06
805,137.5,31.3,25,4.83E+06
806,131.25,37.5,25,8.84E+06
807,137.5,43.8,25,1.22E+07
808,137.5,31.3,12.5,4.90E+06
809,131.25,37.5,12.5,8.87E+06
810,137.5,37.5,6.25,8.51E+06
811,137.5,43.8,12.5,1.22E+07
812,137.5,25,31.3,3.08E+06
813,137.5,18.8,37.5,4.90E+06
814,131.25,25,37.5,3.16E+06
815,137.5,25,43.8,3.42E+06
816,137.5,25,18.8,3.08E+06
817,137.5,18.8,25,4.83E+06
818,131.25,25,25,3.00E+06
819,137.5,18.8,12.5,4.90E+06
820,131.25,25,12.5,3.16E+06
821,137.5,25,6.25,3.42E+06
822,137.5,12.5,31.3,8.42E+06
823,131.25,12.5,37.5,8.87E+06
824,137.5,12.5,43.8,8.51E+06
825,137.5,6.25,37.5,1.22E+07
826,137.5,12.5,18.8,8.42E+06
827,131.25,12.5,25,8.84E+06
828,137.5,6.25,25,1.22E+07
829,131.25,12.5,12.5,8.87E+06
830,137.5,12.5,6.25,8.51E+06
831,137.5,6.25,12.5,1.22E+07
832,125,37.5,31.3,9.29E+06
833,125,31.3,37.5,5.28E+06
834,118.75,37.5,37.5,9.74E+06
835,125,37.5,43.8,9.37E+06
836,125,43.8,37.5,1.36E+07
837,125,37.5,18.8,9.29E+06
838,125,31.3,25,5.21E+06
839,118.75,37.5,25,9.72E+06
840,125,43.8,25,1.36E+07
841,125,31.3,12.5,5.28E+06
842,118.75,37.5,12.5,9.74E+06
843,125,37.5,6.25,9.37E+06
844,125,43.8,12.5,1.36E+07
845,125,25,31.3,3.08E+06
846,125,18.8,37.5,5.28E+06
847,118.75,25,37.5,3.16E+06
848,125,25,43.8,3.42E+06
849,125,25,18.8,3.08E+06
850,125,18.8,25,5.21E+06
851,118.75,25,25,3.00E+06
852,125,18.8,12.5,5.28E+06
853,118.75,25,12.5,3.16E+06
854,125,25,6.25,3.42E+06
855,125,12.5,31.3,9.29E+06
856,118.75,12.5,37.5,9.74E+06
857,125,12.5,43.8,9.37E+06
858,125,6.25,37.5,1.36E+07
859,125,12.5,18.8,9.29E+06
860,118.75,12.5,25,9.72E+06
861,125,6.25,25,1.36E+07
862,118.75,12.5,12.5,9.74E+06
863,125,12.5,6.25,9.37E+06
864,125,6.25,12.5,1.36E+07
865,112.5,37.5,31.3,1.02E+07
866,112.5,31.3,37.5,5.67E+06
867,106.25,37.5,37.5,1.06E+07
868,112.5,37.5,43.8,1.02E+07
869,112.5,43.8,37.5,1.49E+07
870,112.5,37.5,18.8,1.02E+07
871,112.5,31.3,25,5.60E+06
872,106.25,37.5,25,1.06E+07
873,112.5,43.8,25,1.49E+07
874,112.5,31.3,12.5,5.67E+06
875,106.25,37.5,12.5,1.06E+07
876,112.5,37.5,6.25,1.02E+07
877,112.5,43.8,12.5,1.49E+07
878,112.5,25,31.3,3.08E+06
879,112.5,18.8,37.5,5.67E+06
880,106.25,25,37.5,3.16E+06
881,112.5,25,43.8,3.42E+06
882,112.5,25,18.8,3.08E+06
883,112.5,18.8,25,5.60E+06
884,106.25,25,25,3.00E+06
885,112.5,18.8,12.5,5.67E+06
886,106.25,25,12.5,3.16E+06
887,112.5,25,6.25,3.42E+06
888,112.5,12.5,31.3,1.02E+07
889,106.25,12.5,37.5,1.06E+07
890,112.5,12.5,43.8,1.02E+07
891,112.5,6.25,37.5,1.49E+07
892,112.5,12.5,18.8,1.02E+07
893,106.25,12.5,25,1.06E+07
894,112.5,6.25,25,1.49E+07
895,106.25,12.5,12.5,1.06E+07
896,112.5,12.5,6.25,1.02E+07
897,112.5,6.25,12.5,1.49E+07
898,100,37.5,31.3,1.10E+07
899,100,31.3,37.5,6.07E+06
900,93.8,37.5,37.5,1.15E+07
901,100,37.5,43.8,1.11E+07
902,100,43.8,37.5,1.62E+07
903,100,37.5,18.8,1.10E+07
904,100,31.3,25,6.00E+06
905,93.8,37.5,25,1.15E+07
906,100,43.8,25,1.62E+07
907,100,31.3,12.5,6.07E+06
908,93.8,37.5,12.5,1.15E+07
909,100,37.5,6.25,1.11E+07
910,100,43.8,12.5,1.62E+07
911,100,25,31.3,3.08E+06
912,100,18.8,37.5,6.07E+06
913,93.8,25,37.5,3.16E+06
914,100,25,43.8,3.42E+06
915,100,25,18.8,3.08E+06
916,100,18.8,25,6.00E+06
917,93.8,25,25,3.00E+06
918,100,18.8,12.5,6.07E+06
919,93.8,25,12.5,3.16E+06
920,100,25,6.25,3.42E+06
921,100,12.5,31.3,1.10E+07
922,93.8,12.5,37.5,1.15E+07
923,100,12.5,43.8,1.11E+07
924,100,6.25,37.5,1.62E+07
925,100,12.5,18.8,1.10E+07
926,93.8,12.5,25,1.15E+07
927,100,6.25,25,1.62E+07
928,93.8,12.5,12.5,1.15E+07
929,100,12.5,6.25,1.11E+07
930,100,6.25,12.5,1.62E+07
931,87.5,37.5,31.3,1.19E+07
932,87.5,31.3,37.5,6.47E+06
933,81.3,37.5,37.5,1.24E+07
934,87.5,37.5,43.8,1.20E+07
935,87.5,43.8,37.5,1.76E+07
936,87.5,37.5,18.8,1.19E+07
937,87.5,31.3,25,6.41E+06
938,81.3,37.5,25,1.24E+07
939,87.5,43.8,25,1.76E+07
940,87.5,31.3,12.5,6.47E+06
941,81.3,37.5,12.5,1.24E+07
942,87.5,37.5,6.25,1.20E+07
943,87.5,43.8,12.5,1.76E+07
944,87.5,25,31.3,3.08E+06
945,87.5,18.8,37.5,6.47E+06
946,81.3,25,37.5,3.16E+06
947,87.5,25,43.8,3.42E+06
948,87.5,25,18.8,3.08E+06
949,87.5,18.8,25,6.41E+06
950,81.3,25,25,3.00E+06
951,87.5,18.8,12.5,6.47E+06
952,81.3,25,12.5,3.16E+06
953,87.5,25,6.25,3.42E+06
954,87.5,12.5,31.3,1.19E+07
955,81.3,12.5,37.5,1.24E+07
956,87.5,12.5,43.8,1.20E+07
957,87.5,6.25,37.5,1.76E+07
958,87.5,12.5,18.8,1.19E+07
959,81.3,12.5,25,1.24E+07
960,87.5,6.25,25,1.76E+07
961,81.3,12.5,12.5,1.24E+07
962,87.5,12.5,6.25,1.20E+07
963,87.5,6.25,12.5,1.76E+07
964,75,37.5,31.3,1.28E+07
965,75,31.3,37.5,6.88E+06
966,68.8,37.5,37.5,1.33E+07
967,75,37.5,43.8,1.29E+07
968,75,43.8,37.5,1.89E+07
969,75,37.5,18.8,1.28E+07
970,75,31.3,25,6.83E+06
971,68.8,37.5,25,1.33E+07
972,75,43.8,25,1.89E+07
973,75,31.3,12.5,6.88E+06
974,68.8,37.5,12.5,1.33E+07
975,75,37.5,6.25,1.29E+07
976,75,43.8,12.5,1.89E+07
977,75,25,31.3,3.08E+06
978,75,18.8,37.5,6.88E+06
979,68.8,25,37.5,3.15E+06
980,75,25,43.8,3.41E+06
981,75,25,18.8,3.08E+06
982,75,18.8,25,6.83E+06
983,68.8,25,25,3.01E+06
984,75,18.8,12.5,6.88E+06
985,68.8,25,12.5,3.15E+06
986,75,25,6.25,3.41E+06
987,75,12.5,31.3,1.28E+07
988,68.8,12.5,37.5,1.33E+07
989,75,12.5,43.8,1.29E+07
990,75,6.25,37.5,1.89E+07
991,75,12.5,18.8,1.28E+07
992,68.8,12.5,25,1.33E+07
993,75,6.25,25,1.89E+07
994,68.8,12.5,12.5,1.33E+07
995,75,12.5,6.25,1.29E+07
996,75,6.25,12.5,1.89E+07
997,62.5,37.5,31.3,1.37E+07
998,62.5,31.3,37.5,7.29E+06
999,56.3,37.5,37.5,1.42E+07
1000,62.5,37.5,43.8,1.37E+07
1001,62.5,43.8,37.5,2.03E+07
1002,62.5,37.5,18.8,1.37E+07
1003,62.5,31.3,25,7.26E+06
1004,56.3,37.5,25,1.42E+07
1005,62.5,43.8,25,2.03E+07
1006,62.5,31.3,12.5,7.29E+06
1007,56.3,37.5,12.5,1.42E+07
1008,62.5,37.5,6.25,1.37E+07
1009,62.5,43.8,12.5,2.03E+07
1010,62.5,25,31.3,3.09E+06
1011,62.5,18.8,37.5,7.29E+06
1012,56.3,25,37.5,3.15E+06
1013,62.5,25,43.8,3.40E+06
1014,62.5,25,18.8,3.09E+06
1015,62.5,18.8,25,7.26E+06
1016,56.3,25,25,3.06E+06
1017,62.5,18.8,12.5,7.29E+06
1018,56.3,25,12.5,3.15E+06
1019,62.5,25,6.25,3.40E+06
1020,62.5,12.5,31.3,1.37E+07
1021,56.3,12.5,37.5,1.42E+07
1022,62.5,12.5,43.8,1.37E+07
1023,62.5,6.25,37.5,2.03E+07
1024,62.5,12.5,18.8,1.37E+07
1025,56.3,12.5,25,1.42E+07
1026,62.5,6.25,25,2.03E+07
1027,56.3,12.5,12.5,1.42E+07
1028,62.5,12.5,6.25,1.37E+07
1029,62.5,6.25,12.5,2.03E+07
1030,50,37.5,31.3,1.46E+07
1031,50,31.3,37.5,7.72E+06
1032,43.8,37.5,37.5,1.50E+07
1033,50,37.5,43.8,1.46E+07
1034,50,43.8,37.5,2.17E+07
1035,50,37.5,18.8,1.46E+07
1036,50,31.3,25,7.73E+06
1037,43.8,37.5,25,1.52E+07
1038,50,43.8,25,2.17E+07
1039,50,31.3,12.5,7.72E+06
1040,43.8,37.5,12.5,1.50E+07
1041,50,37.5,6.25,1.46E+07
1042,50,43.8,12.5,2.17E+07
1043,50,25,31.3,3.12E+06
1044,50,18.8,37.5,7.72E+06
1045,43.8,25,37.5,3.19E+06
1046,50,25,43.8,3.35E+06
1047,50,25,18.8,3.12E+06
1048,50,18.8,25,7.73E+06
1049,43.8,25,25,3.24E+06
1050,50,18.8,12.5,7.72E+06
1051,43.8,25,12.5,3.19E+06
1052,50,25,6.25,3.35E+06
1053,50,12.5,31.3,1.46E+07
1054,43.8,12.5,37.5,1.50E+07
1055,50,12.5,43.8,1.46E+07
1056,50,6.25,37.5,2.17E+07
1057,50,12.5,18.8,1.46E+07
1058,43.8,12.5,25,1.52E+07
1059,50,6.25,25,2.17E+07
1060,43.8,12.5,12.5,1.50E+07
1061,50,12.5,6.25,1.46E+07
1062,50,6.25,12.5,2.17E+07
1063,37.5,37.5,31.3,1.56E+07
1064,37.5,31.3,37.5,8.16E+06
1065,31.3,37.5,37.5,1.62E+07
1066,37.5,37.5,43.8,1.54E+07
1067,37.5,43.8,37.5,2.30E+07
1068,37.5,37.5,18.8,1.56E+07
1069,37.5,31.3,25,8.28E+06
1070,31.3,37.5,25,1.64E+07
1071,37.5,43.8,25,2.32E+07
1072,37.5,31.3,12.5,8.16E+06
1073,31.3,37.5,12.5,1.62E+07
1074,37.5,37.5,6.25,1.54E+07
1075,37.5,43.8,12.5,2.30E+07
1076,37.5,25,31.3,3.31E+06
1077,37.5,18.8,37.5,8.16E+06
1078,31.3,25,37.5,3.31E+06
1079,37.5,25,43.8,3.26E+06
1080,37.5,25,18.8,3.31E+06
1081,37.5,18.8,25,8.28E+06
1082,31.3,25,25,3.64E+06
1083,37.5,18.8,12.5,8.16E+06
1084,31.3,25,12.5,3.31E+06
1085,37.5,25,6.25,3.26E+06
1086,37.5,12.5,31.3,1.56E+07
1087,31.3,12.5,37.5,1.62E+07
1088,37.5,12.5,43.8,1.54E+07
1089,37.5,6.25,37.5,2.30E+07
1090,37.5,12.5,18.8,1.56E+07
1091,31.3,12.5,25,1.64E+07
1092,37.5,6.25,25,2.32E+07
1093,31.3,12.5,12.5,1.62E+07
1094,37.5,12.5,6.25,1.54E+07
1095,37.5,6.25,12.5,2.30E+07
1096,25,37.5,31.3,1.70E+07
1097,25,31.3,37.5,8.89E+06
1098,18.8,37.5,37.5,1.73E+07
1099,25,37.5,43.8,1.63E+07
1100,25,43.8,37.5,2.45E+07
1101,25,37.5,18.8,1.70E+07
1102,25,31.3,25,9.12E+06
1103,18.8,37.5,25,1.72E+07
1104,25,43.8,25,2.45E+07
1105,25,31.3,12.5,8.89E+06
1106,18.8,37.5,12.5,1.73E+07
1107,25,37.5,6.25,1.63E+07
1108,25,43.8,12.5,2.45E+07
1109,25,25,31.3,3.63E+06
1110,25,18.8,37.5,8.89E+06
1111,18.8,25,37.5,3.94E+06
1112,25,25,43.8,2.92E+06
1113,25,25,18.8,3.63E+06
1114,25,18.8,25,9.12E+06
1115,18.8,25,25,4.62E+06
1116,25,18.8,12.5,8.89E+06
1117,18.8,25,12.5,3.94E+06
1118,25,25,6.25,2.92E+06
1119,25,12.5,31.3,1.70E+07
1120,18.8,12.5,37.5,1.73E+07
1121,25,12.5,43.8,1.63E+07
1122,25,6.25,37.5,2.45E+07
1123,25,12.5,18.8,1.70E+07
1124,18.8,12.5,25,1.72E+07
1125,25,6.25,25,2.45E+07
1126,18.8,12.5,12.5,1.73E+07
1127,25,12.5,6.25,1.63E+07
1128,25,6.25,12.5,2.45E+07
1129,12.5,37.5,31.3,1.76E+07
1130,12.5,31.3,37.5,9.67E+06
1131,12.5,37.5,43.8,1.73E+07
1132,12.5,43.8,37.5,2.62E+07
1133,6.25,37.5,37.5,1.33E+07
1134,12.5,37.5,18.8,1.76E+07
1135,12.5,31.3,25,9.79E+06
1136,12.5,43.8,25,2.53E+07
1137,6.25,37.5,25,1.31E+07
1138,12.5,31.3,12.5,9.67E+06
1139,12.5,37.5,6.25,1.73E+07
1140,12.5,43.8,12.5,2.62E+07
1141,6.25,37.5,12.5,1.33E+07
1142,12.5,25,31.3,4.85E+06
1143,12.5,18.8,37.5,9.67E+06
1144,12.5,25,43.8,2.96E+06
1145,6.25,25,37.5,1.56E+06
1146,12.5,25,18.8,4.85E+06
1147,12.5,18.8,25,9.79E+06
1148,6.25,25,25,2.10E+06
1149,12.5,18.8,12.5,9.67E+06
1150,12.5,25,6.25,2.96E+06
1151,6.25,25,12.5,1.56E+06
1152,12.5,12.5,31.3,1.76E+07
1153,12.5,12.5,43.8,1.73E+07
1154,12.5,6.25,37.5,2.62E+07
1155,6.25,12.5,37.5,1.33E+07
1156,12.5,12.5,18.8,1.76E+07
1157,12.5,6.25,25,2.53E+07
1158,6.25,12.5,25,1.31E+07
1159,12.5,12.5,6.25,1.73E+07
1160,12.5,6.25,12.5,2.62E+07
1161,6.25,12.5,12.5,1.33E+07
1162,12.5,18.8,50,8.58E+06
1163,18.8,12.5,50,1.63E+07
1164,12.5,6.25,50,2.57E+07
1165,6.25,12.5,50,1.58E+07
1166,12.5,31.3,50,8.58E+06
1167,18.8,25,50,1.94E+06
1168,6.25,25,50,2.61E+06
1169,18.8,37.5,50,1.63E+07
1170,12.5,43.8,50,2.57E+07
1171,6.25,37.5,50,1.58E+07
1172,25,18.8,50,8.04E+06
1173,31.3,12.5,50,1.54E+07
1174,25,6.25,50,2.32E+07
1175,25,31.3,50,8.04E+06
1176,31.3,25,50,2.86E+06
1177,31.3,37.5,50,1.54E+07
1178,25,43.8,50,2.32E+07
1179,37.5,18.8,50,8.06E+06
1180,43.8,12.5,50,1.49E+07
1181,37.5,6.25,50,2.27E+07
1182,37.5,31.3,50,8.06E+06
1183,43.8,25,50,3.42E+06
1184,43.8,37.5,50,1.49E+07
1185,37.5,43.8,50,2.27E+07
1186,50,18.8,50,7.82E+06
1187,56.3,12.5,50,1.42E+07
1188,50,6.25,50,2.15E+07
1189,50,31.3,50,7.82E+06
1190,56.3,25,50,3.60E+06
1191,56.3,37.5,50,1.42E+07
1192,50,43.8,50,2.15E+07
1193,62.5,18.8,50,7.48E+06
1194,68.8,12.5,50,1.33E+07
1195,62.5,6.25,50,2.03E+07
1196,62.5,31.3,50,7.48E+06
1197,68.8,25,50,3.66E+06
1198,68.8,37.5,50,1.33E+07
1199,62.5,43.8,50,2.03E+07
1200,75,18.8,50,7.10E+06
1201,81.3,12.5,50,1.25E+07
1202,75,6.25,50,1.90E+07
1203,75,31.3,50,7.10E+06
1204,81.3,25,50,3.68E+06
1205,81.3,37.5,50,1.25E+07
1206,75,43.8,50,1.90E+07
1207,87.5,18.8,50,6.70E+06
1208,93.8,12.5,50,1.16E+07
1209,87.5,6.25,50,1.76E+07
1210,87.5,31.3,50,6.70E+06
1211,93.8,25,50,3.68E+06
1212,93.8,37.5,50,1.16E+07
1213,87.5,43.8,50,1.76E+07
1214,100,18.8,50,6.32E+06
1215,106.25,12.5,50,1.07E+07
1216,100,6.25,50,1.63E+07
1217,100,31.3,50,6.32E+06
1218,106.25,25,50,3.68E+06
1219,106.25,37.5,50,1.07E+07
1220,100,43.8,50,1.63E+07
1221,112.5,18.8,50,5.94E+06
1222,118.75,12.5,50,9.88E+06
1223,112.5,6.25,50,1.49E+07
1224,112.5,31.3,50,5.94E+06
1225,118.75,25,50,3.68E+06
1226,118.75,37.5,50,9.88E+06
1227,112.5,43.8,50,1.49E+07
1228,125,18.8,50,5.57E+06
1229,131.25,12.5,50,9.02E+06
1230,125,6.25,50,1.36E+07
1231,125,31.3,50,5.57E+06
1232,131.25,25,50,3.68E+06
1233,131.25,37.5,50,9.02E+06
1234,125,43.8,50,1.36E+07
1235,137.5,18.8,50,5.21E+06
1236,143.75,12.5,50,8.17E+06
1237,137.5,6.25,50,1.22E+07
1238,137.5,31.3,50,5.21E+06
1239,143.75,25,50,3.68E+06
1240,143.75,37.5,50,8.17E+06
1241,137.5,43.8,50,1.22E+07
1242,150,18.8,50,4.87E+06
1243,156.25,12.5,50,7.34E+06
1244,150,6.25,50,1.09E+07
1245,150,31.3,50,4.87E+06
1246,156.25,25,50,3.68E+06
1247,156.25,37.5,50,7.33E+06
1248,150,43.8,50,1.09E+07
1249,162.5,18.8,50,4.55E+06
1250,168.75,12.5,50,6.52E+06
1251,162.5,6.25,50,9.58E+06
1252,162.5,31.3,50,4.54E+06
1253,168.75,25,50,3.68E+06
1254,168.75,37.5,50,6.51E+06
1255,162.5,43.8,50,9.57E+06
1256,175,18.8,50,4.25E+06
1257,181.25,12.5,50,5.71E+06
1258,175,6.25,50,8.25E+06
1259,175,31.3,50,4.24E+06
1260,181.25,25,50,3.68E+06
1261,181.25,37.5,50,5.74E+06
1262,175,43.8,50,8.24E+06
1263,187.5,18.8,50,3.94E+06
1264,193.75,12.5,50,4.88E+06
1265,187.5,6.25,50,6.92E+06
1266,187.5,31.3,50,4.00E+06
1267,193.75,25,50,3.68E+06
1268,193.75,37.5,50,5.05E+06
1269,187.5,43.8,50,6.93E+06
1270,200,18.8,50,3.61E+06
1271,206.25,12.5,50,3.90E+06
1272,200,6.25,50,5.58E+06
1273,200,31.3,50,3.88E+06
1274,206.25,25,50,3.73E+06
1275,206.25,37.5,50,4.58E+06
1276,200,43.8,50,5.64E+06
1277,212.5,18.8,50,3.19E+06
1278,218.75,12.5,50,2.81E+06
1279,212.5,6.25,50,4.19E+06
1280,212.5,31.3,50,3.96E+06
1281,218.75,25,50,4.04E+06
1282,218.75,37.5,50,4.31E+06
1283,212.5,43.8,50,4.39E+06
1284,225,18.8,50,3.23E+06
1285,231.25,12.5,50,3.91E+06
1286,225,6.25,50,2.64E+06
1287,225,31.3,50,4.24E+06
1288,231.25,25,50,4.53E+06
1289,231.25,37.5,50,3.65E+06
1290,225,43.8,50,3.15E+06
1291,237.5,18.8,50,5.16E+06
1292,237.5,6.25,50,2.88E+06
1293,243.75,12.5,50,5.21E+06
1294,237.5,31.3,50,4.03E+06
1295,243.75,25,50,3.72E+06
1296,237.5,43.8,50,1.73E+06
1297,243.75,37.5,50,1.67E+06
1298,237.5,31.3,0,4.03E+06
1299,231.25,37.5,0,3.65E+06
1300,243.75,37.5,0,1.67E+06
1301,237.5,43.8,0,1.73E+06
1302,237.5,18.8,0,5.16E+06
1303,231.25,25,0,4.53E+06
1304,243.75,25,0,3.72E+06
1305,231.25,12.5,0,3.91E+06
1306,243.75,12.5,0,5.21E+06
1307,237.5,6.25,0,2.88E+06
1308,225,31.3,0,4.24E+06
1309,218.75,37.5,0,4.31E+06
1310,225,43.8,0,3.15E+06
1311,225,18.8,0,3.23E+06
1312,218.75,25,0,4.04E+06
1313,218.75,12.5,0,2.81E+06
1314,225,6.25,0,2.64E+06
1315,212.5,31.3,0,3.96E+06
1316,206.25,37.5,0,4.58E+06
1317,212.5,43.8,0,4.39E+06
1318,212.5,18.8,0,3.19E+06
1319,206.25,25,0,3.73E+06
1320,206.25,12.5,0,3.90E+06
1321,212.5,6.25,0,4.19E+06
1322,200,31.3,0,3.88E+06
1323,193.75,37.5,0,5.05E+06
1324,200,43.8,0,5.64E+06
1325,200,18.8,0,3.61E+06
1326,193.75,25,0,3.68E+06
1327,193.75,12.5,0,4.88E+06
1328,200,6.25,0,5.58E+06
1329,187.5,31.3,0,4.00E+06
1330,181.25,37.5,0,5.74E+06
1331,187.5,43.8,0,6.93E+06
1332,187.5,18.8,0,3.94E+06
1333,181.25,25,0,3.68E+06
1334,181.25,12.5,0,5.71E+06
1335,187.5,6.25,0,6.92E+06
1336,175,31.3,0,4.24E+06
1337,168.75,37.5,0,6.51E+06
1338,175,43.8,0,8.24E+06
1339,175,18.8,0,4.25E+06
1340,168.75,25,0,3.68E+06
1341,168.75,12.5,0,6.52E+06
1342,175,6.25,0,8.25E+06
1343,162.5,31.3,0,4.54E+06
1344,156.25,37.5,0,7.33E+06
1345,162.5,43.8,0,9.57E+06
1346,162.5,18.8,0,4.55E+06
1347,156.25,25,0,3.68E+06
1348,156.25,12.5,0,7.34E+06
1349,162.5,6.25,0,9.58E+06
1350,150,31.3,0,4.87E+06
1351,143.75,37.5,0,8.17E+06
1352,150,43.8,0,1.09E+07
1353,150,18.8,0,4.87E+06
1354,143.75,25,0,3.68E+06
1355,143.75,12.5,0,8.17E+06
1356,150,6.25,0,1.09E+07
1357,137.5,31.3,0,5.21E+06
1358,131.25,37.5,0,9.02E+06
1359,137.5,43.8,0,1.22E+07
1360,137.5,18.8,0,5.21E+06
1361,131.25,25,0,3.68E+06
1362,131.25,12.5,0,9.02E+06
1363,137.5,6.25,0,1.22E+07
1364,125,31.3,0,5.57E+06
1365,118.75,37.5,0,9.88E+06
1366,125,43.8,0,1.36E+07
1367,125,18.8,0,5.57E+06
1368,118.75,25,0,3.68E+06
1369,118.75,12.5,0,9.88E+06
1370,125,6.25,0,1.36E+07
1371,112.5,31.3,0,5.94E+06
1372,106.25,37.5,0,1.07E+07
1373,112.5,43.8,0,1.49E+07
1374,112.5,18.8,0,5.94E+06
1375,106.25,25,0,3.68E+06
1376,106.25,12.5,0,1.07E+07
1377,112.5,6.25,0,1.49E+07
1378,100,31.3,0,6.32E+06
1379,93.8,37.5,0,1.16E+07
1380,100,43.8,0,1.63E+07
1381,100,18.8,0,6.32E+06
1382,93.8,25,0,3.68E+06
1383,93.8,12.5,0,1.16E+07
1384,100,6.25,0,1.63E+07
1385,87.5,31.3,0,6.70E+06
1386,81.3,37.5,0,1.25E+07
1387,87.5,43.8,0,1.76E+07
1388,87.5,18.8,0,6.70E+06
1389,81.3,25,0,3.68E+06
1390,81.3,12.5,0,1.25E+07
1391,87.5,6.25,0,1.76E+07
1392,75,31.3,0,7.10E+06
1393,68.8,37.5,0,1.33E+07
1394,75,43.8,0,1.90E+07
1395,75,18.8,0,7.10E+06
1396,68.8,25,0,3.66E+06
1397,68.8,12.5,0,1.33E+07
1398,75,6.25,0,1.90E+07
1399,62.5,31.3,0,7.48E+06
1400,56.3,37.5,0,1.42E+07
1401,62.5,43.8,0,2.03E+07
1402,62.5,18.8,0,7.48E+06
1403,56.3,25,0,3.60E+06
1404,56.3,12.5,0,1.42E+07
1405,62.5,6.25,0,2.03E+07
1406,50,31.3,0,7.82E+06
1407,43.8,37.5,0,1.49E+07
1408,50,43.8,0,2.15E+07
1409,50,18.8,0,7.82E+06
1410,43.8,25,0,3.42E+06
1411,43.8,12.5,0,1.49E+07
1412,50,6.25,0,2.15E+07
1413,37.5,31.3,0,8.06E+06
1414,31.3,37.5,0,1.54E+07
1415,37.5,43.8,0,2.27E+07
1416,37.5,18.8,0,8.06E+06
1417,31.3,25,0,2.86E+06
1418,31.3,12.5,0,1.54E+07
1419,37.5,6.25,0,2.27E+07
1420,25,31.3,0,8.04E+06
1421,18.8,37.5,0,1.63E+07
1422,25,43.8,0,2.32E+07
1423,25,18.8,0,8.04E+06
1424,18.8,25,0,1.94E+06
1425,18.8,12.5,0,1.63E+07
1426,25,6.25,0,2.32E+07
1427,12.5,31.3,0,8.58E+06
1428,6.25,37.5,0,1.58E+07
1429,12.5,43.8,0,2.57E+07
1430,12.5,18.8,0,8.58E+06
1431,6.25,25,0,2.61E+06
1432,6.25,12.5,0,1.58E+07
1433,12.5,6.25,0,2.57E+07
1434,0,31.3,0,1.02E+07
1435,0,43.8,0,2.64E+07
1436,0,37.5,6.25,1.30E+07
1437,0,18.8,0,1.02E+07
1438,0,25,6.25,3.98E+06
1439,0,6.25,0,2.64E+07
1440,0,12.5,6.25,1.30E+07
1441,250,31.3,0,2.00E+06
1442,250,43.8,0,2.87E+05
1443,250,37.5,6.25,7.72E+05
1444,250,18.8,0,6.02E+06
1445,250,25,6.25,3.39E+06
1446,250,6.25,0,1.69E+07
1447,250,12.5,6.25,8.86E+06
1448,6.25,50,0,3.34E+07
1449,0,50,6.25,3.22E+07
1450,18.8,50,0,3.26E+07
1451,12.5,50,6.25,3.47E+07
1452,31.3,50,0,3.06E+07
1453,25,50,6.25,3.16E+07
1454,43.8,50,0,2.95E+07
1455,37.5,50,6.25,3.05E+07
1456,56.3,50,0,2.78E+07
1457,50,50,6.25,2.87E+07
1458,68.8,50,0,2.61E+07
1459,62.5,50,6.25,2.70E+07
1460,81.3,50,0,2.43E+07
1461,75,50,6.25,2.52E+07
1462,93.8,50,0,2.25E+07
1463,87.5,50,6.25,2.34E+07
1464,106.25,50,0,2.07E+07
1465,100,50,6.25,2.16E+07
1466,118.75,50,0,1.89E+07
1467,112.5,50,6.25,1.98E+07
1468,131.25,50,0,1.71E+07
1469,125,50,6.25,1.80E+07
1470,143.75,50,0,1.53E+07
1471,137.5,50,6.25,1.62E+07
1472,156.25,50,0,1.35E+07
1473,150,50,6.25,1.44E+07
1474,168.75,50,0,1.17E+07
1475,162.5,50,6.25,1.26E+07
1476,181.25,50,0,9.90E+06
1477,175,50,6.25,1.08E+07
1478,193.75,50,0,8.07E+06
1479,187.5,50,6.25,9.00E+06
1480,206.25,50,0,6.13E+06
1481,200,50,6.25,7.13E+06
1482,218.75,50,0,3.98E+06
1483,212.5,50,6.25,5.10E+06
1484,231.25,50,0,1.74E+06
1485,225,50,6.25,2.79E+06
1486,243.75,50,0,3.09E+05
1487,237.5,50,6.25,6.39E+05
1488,250,50,6.25,1.61E+05
1489,6.25,0,0,3.34E+07
1490,0,0,6.25,3.22E+07
1491,18.8,0,0,3.26E+07
1492,12.5,0,6.25,3.47E+07
1493,31.3,0,0,3.06E+07
1494,25,0,6.25,3.16E+07
1495,43.8,0,0,2.95E+07
1496,37.5,0,6.25,3.05E+07
1497,56.3,0,0,2.78E+07
1498,50,0,6.25,2.87E+07
1499,68.8,0,0,2.61E+07
1500,62.5,0,6.25,2.70E+07
1501,81.3,0,0,2.43E+07
1502,75,0,6.25,2.52E+07
1503,93.8,0,0,2.25E+07
1504,87.5,0,6.25,2.34E+07
1505,106.25,0,0,2.07E+07
1506,100,0,6.25,2.16E+07
1507,118.75,0,0,1.89E+07
1508,112.5,0,6.25,1.98E+07
1509,131.25,0,0,1.71E+07
1510,125,0,6.25,1.80E+07
1511,143.75,0,0,1.53E+07
1512,137.5,0,6.25,1.62E+07
1513,156.25,0,0,1.35E+07
1514,150,0,6.25,1.44E+07
1515,168.75,0,0,1.17E+07
1516,162.5,0,6.25,1.26E+07
1517,181.25,0,0,9.90E+06
1518,175,0,6.25,1.08E+07
1519,193.75,0,0,8.12E+06
1520,187.5,0,6.25,9.00E+06
1521,206.25,0,0,6.42E+06
1522,200,0,6.25,7.27E+06
1523,218.75,0,0,4.99E+06
1524,212.5,0,6.25,5.66E+06
1525,231.25,0,0,5.04E+06
1526,225,0,6.25,4.82E+06
1527,243.75,0,0,1.14E+07
1528,237.5,0,6.25,6.60E+06
1529,250,0,6.25,2.58E+07
1530,231.25,0,37.5,5.29E+06
1531,237.5,0,31.3,5.87E+06
1532,237.5,0,43.8,6.60E+06
1533,243.75,0,37.5,1.30E+07
1534,218.75,0,37.5,5.43E+06
1535,225,0,31.3,5.26E+06
1536,225,0,43.8,4.82E+06
1537,206.25,0,37.5,6.51E+06
1538,212.5,0,31.3,5.81E+06
1539,212.5,0,43.8,5.66E+06
1540,193.75,0,37.5,8.15E+06
1541,200,0,31.3,7.33E+06
1542,200,0,43.8,7.27E+06
1543,181.25,0,37.5,9.90E+06
1544,187.5,0,31.3,9.01E+06
1545,187.5,0,43.8,9.00E+06
1546,168.75,0,37.5,1.17E+07
1547,175,0,31.3,1.08E+07
1548,175,0,43.8,1.08E+07
1549,156.25,0,37.5,1.35E+07
1550,162.5,0,31.3,1.26E+07
1551,162.5,0,43.8,1.26E+07
1552,143.75,0,37.5,1.53E+07
1553,150,0,31.3,1.44E+07
1554,150,0,43.8,1.44E+07
1555,131.25,0,37.5,1.71E+07
1556,137.5,0,31.3,1.62E+07
1557,137.5,0,43.8,1.62E+07
1558,118.75,0,37.5,1.89E+07
1559,125,0,31.3,1.80E+07
1560,125,0,43.8,1.80E+07
1561,106.25,0,37.5,2.07E+07
1562,112.5,0,31.3,1.98E+07
1563,112.5,0,43.8,1.98E+07
1564,93.8,0,37.5,2.25E+07
1565,100,0,31.3,2.16E+07
1566,100,0,43.8,2.16E+07
1567,81.3,0,37.5,2.43E+07
1568,87.5,0,31.3,2.34E+07
1569,87.5,0,43.8,2.34E+07
1570,68.8,0,37.5,2.61E+07
1571,75,0,31.3,2.52E+07
1572,75,0,43.8,2.52E+07
1573,56.3,0,37.5,2.79E+07
1574,62.5,0,31.3,2.70E+07
1575,62.5,0,43.8,2.70E+07
1576,43.8,0,37.5,2.98E+07
1577,50,0,31.3,2.88E+07
1578,50,0,43.8,2.87E+07
1579,31.3,0,37.5,3.15E+07
1580,37.5,0,31.3,3.08E+07
1581,37.5,0,43.8,3.05E+07
1582,18.8,0,37.5,3.37E+07
1583,25,0,31.3,3.22E+07
1584,25,0,43.8,3.16E+07
1585,12.5,0,31.3,3.45E+07
1586,12.5,0,43.8,3.47E+07
1587,6.25,0,37.5,3.04E+07
1588,231.25,0,25,4.90E+06
1589,237.5,0,18.8,5.87E+06
1590,243.75,0,25,1.26E+07
1591,218.75,0,25,5.60E+06
1592,225,0,18.8,5.26E+06
1593,206.25,0,25,6.63E+06
1594,212.5,0,18.8,5.81E+06
1595,193.75,0,25,8.19E+06
1596,200,0,18.8,7.33E+06
1597,181.25,0,25,9.91E+06
1598,187.5,0,18.8,9.01E+06
1599,168.75,0,25,1.17E+07
1600,175,0,18.8,1.08E+07
1601,156.25,0,25,1.35E+07
1602,162.5,0,18.8,1.26E+07
1603,143.75,0,25,1.53E+07
1604,150,0,18.8,1.44E+07
1605,131.25,0,25,1.71E+07
1606,137.5,0,18.8,1.62E+07
1607,118.75,0,25,1.89E+07
1608,125,0,18.8,1.80E+07
1609,106.25,0,25,2.07E+07
1610,112.5,0,18.8,1.98E+07
1611,93.8,0,25,2.25E+07
1612,100,0,18.8,2.16E+07
1613,81.3,0,25,2.43E+07
1614,87.5,0,18.8,2.34E+07
1615,68.8,0,25,2.61E+07
1616,75,0,18.8,2.52E+07
1617,56.3,0,25,2.80E+07
1618,62.5,0,18.8,2.70E+07
1619,43.8,0,25,2.99E+07
1620,50,0,18.8,2.88E+07
1621,31.3,0,25,3.15E+07
1622,37.5,0,18.8,3.08E+07
1623,18.8,0,25,3.29E+07
1624,25,0,18.8,3.22E+07
1625,12.5,0,18.8,3.45E+07
1626,6.25,0,25,3.03E+07
1627,231.25,0,12.5,5.29E+06
1628,243.75,0,12.5,1.30E+07
1629,218.75,0,12.5,5.43E+06
1630,206.25,0,12.5,6.51E+06
1631,193.75,0,12.5,8.15E+06
1632,181.25,0,12.5,9.90E+06
1633,168.75,0,12.5,1.17E+07
1634,156.25,0,12.5,1.35E+07
1635,143.75,0,12.5,1.53E+07
1636,131.25,0,12.5,1.71E+07
1637,118.75,0,12.5,1.89E+07
1638,106.25,0,12.5,2.07E+07
1639,93.8,0,12.5,2.25E+07
1640,81.3,0,12.5,2.43E+07
1641,68.8,0,12.5,2.61E+07
1642,56.3,0,12.5,2.79E+07
1643,43.8,0,12.5,2.98E+07
1644,31.3,0,12.5,3.15E+07
1645,18.8,0,12.5,3.37E+07
1646,6.25,0,12.5,3.04E+07
1647,231.25,0,50,5.04E+06
1648,243.75,0,50,1.14E+07
1649,218.75,0,50,4.99E+06
1650,206.25,0,50,6.42E+06
1651,193.75,0,50,8.12E+06
1652,181.25,0,50,9.90E+06
1653,168.75,0,50,1.17E+07
1654,156.25,0,50,1.35E+07
1655,143.75,0,50,1.53E+07
1656,131.25,0,50,1.71E+07
1657,118.75,0,50,1.89E+07
1658,106.25,0,50,2.07E+07
1659,93.8,0,50,2.25E+07
1660,81.3,0,50,2.43E+07
1661,68.8,0,50,2.61E+07
1662,56.3,0,50,2.78E+07
1663,43.8,0,50,2.95E+07
1664,31.3,0,50,3.06E+07
1665,18.8,0,50,3.26E+07
1666,6.25,0,50,3.34E+07
1667,0,0,18.8,2.90E+07
1668,0,6.25,12.5,1.83E+07
1669,0,0,31.3,2.90E+07
1670,0,6.25,25,1.88E+07
1671,0,0,43.8,3.22E+07
1672,0,6.25,37.5,1.83E+07
1673,0,6.25,50,2.64E+07
1674,250,0,18.8,2.57E+07
1675,250,6.25,12.5,1.70E+07
1676,250,0,31.3,2.57E+07
1677,250,6.25,25,1.65E+07
1678,250,0,43.8,2.58E+07
1679,250,6.25,37.5,1.70E+07
1680,250,6.25,50,1.69E+07
1681,237.5,50,31.3,6.86E+05
1682,231.25,50,37.5,1.69E+06
1683,237.5,50,43.8,6.39E+05
1684,243.75,50,37.5,3.65E+05
1685,237.5,50,18.8,6.86E+05
1686,231.25,50,25,1.70E+06
1687,243.75,50,25,4.90E+05
1688,231.25,50,12.5,1.69E+06
1689,243.75,50,12.5,3.65E+05
1690,225,50,31.3,2.71E+06
1691,218.75,50,37.5,3.90E+06
1692,225,50,43.8,2.79E+06
1693,225,50,18.8,2.71E+06
1694,218.75,50,25,3.85E+06
1695,218.75,50,12.5,3.90E+06
1696,212.5,50,31.3,5.03E+06
1697,206.25,50,37.5,6.10E+06
1698,212.5,50,43.8,5.10E+06
1699,212.5,50,18.8,5.03E+06
1700,206.25,50,25,6.04E+06
1701,206.25,50,12.5,6.10E+06
1702,200,50,31.3,7.10E+06
1703,193.75,50,37.5,8.07E+06
1704,200,50,43.8,7.13E+06
1705,200,50,18.8,7.10E+06
1706,193.75,50,25,8.04E+06
1707,193.75,50,12.5,8.07E+06
1708,187.5,50,31.3,8.99E+06
1709,181.25,50,37.5,9.91E+06
1710,187.5,50,43.8,9.00E+06
1711,187.5,50,18.8,8.99E+06
1712,181.25,50,25,9.90E+06
1713,181.25,50,12.5,9.91E+06
1714,175,50,31.3,1.08E+07
1715,168.75,50,37.5,1.17E+07
1716,175,50,43.8,1.08E+07
1717,175,50,18.8,1.08E+07
1718,168.75,50,25,1.17E+07
1719,168.75,50,12.5,1.17E+07
1720,162.5,50,31.3,1.26E+07
1721,156.25,50,37.5,1.35E+07
1722,162.5,50,43.8,1.26E+07
1723,162.5,50,18.8,1.26E+07
1724,156.25,50,25,1.35E+07
1725,156.25,50,12.5,1.35E+07
1726,150,50,31.3,1.44E+07
1727,143.75,50,37.5,1.53E+07
1728,150,50,43.8,1.44E+07
1729,150,50,18.8,1.44E+07
1730,143.75,50,25,1.53E+07
1731,143.75,50,12.5,1.53E+07
1732,137.5,50,31.3,1.62E+07
1733,131.25,50,37.5,1.71E+07
1734,137.5,50,43.8,1.62E+07
1735,137.5,50,18.8,1.62E+07
1736,131.25,50,25,1.71E+07
1737,131.25,50,12.5,1.71E+07
1738,125,50,31.3,1.80E+07
1739,118.75,50,37.5,1.89E+07
1740,125,50,43.8,1.80E+07
1741,125,50,18.8,1.80E+07
1742,118.75,50,25,1.89E+07
1743,118.75,50,12.5,1.89E+07
1744,112.5,50,31.3,1.98E+07
1745,106.25,50,37.5,2.07E+07
1746,112.5,50,43.8,1.98E+07
1747,112.5,50,18.8,1.98E+07
1748,106.25,50,25,2.07E+07
1749,106.25,50,12.5,2.07E+07
1750,100,50,31.3,2.16E+07
1751,93.8,50,37.5,2.25E+07
1752,100,50,43.8,2.16E+07
1753,100,50,18.8,2.16E+07
1754,93.8,50,25,2.25E+07
1755,93.8,50,12.5,2.25E+07
1756,87.5,50,31.3,2.34E+07
1757,81.3,50,37.5,2.43E+07
1758,87.5,50,43.8,2.34E+07
1759,87.5,50,18.8,2.34E+07
1760,81.3,50,25,2.43E+07
1761,81.3,50,12.5,2.43E+07
1762,75,50,31.3,2.52E+07
1763,68.8,50,37.5,2.61E+07
1764,75,50,43.8,2.52E+07
1765,75,50,18.8,2.52E+07
1766,68.8,50,25,2.61E+07
1767,68.8,50,12.5,2.61E+07
1768,62.5,50,31.3,2.70E+07
1769,56.3,50,37.5,2.79E+07
1770,62.5,50,43.8,2.70E+07
1771,62.5,50,18.8,2.70E+07
1772,56.3,50,25,2.80E+07
1773,56.3,50,12.5,2.79E+07
1774,50,50,31.3,2.88E+07
1775,43.8,50,37.5,2.98E+07
1776,50,50,43.8,2.87E+07
1777,50,50,18.8,2.88E+07
1778,43.8,50,25,2.99E+07
1779,43.8,50,12.5,2.98E+07
1780,37.5,50,31.3,3.08E+07
1781,31.3,50,37.5,3.15E+07
1782,37.5,50,43.8,3.05E+07
1783,37.5,50,18.8,3.08E+07
1784,31.3,50,25,3.15E+07
1785,31.3,50,12.5,3.15E+07
1786,25,50,31.3,3.22E+07
1787,18.8,50,37.5,3.37E+07
1788,25,50,43.8,3.16E+07
1789,25,50,18.8,3.22E+07
1790,18.8,50,25,3.29E+07
1791,18.8,50,12.5,3.37E+07
1792,12.5,50,31.3,3.45E+07
1793,12.5,50,43.8,3.47E+07
1794,6.25,50,37.5,3.04E+07
1795,12.5,50,18.8,3.45E+07
1796,6.25,50,25,3.03E+07
1797,6.25,50,12.5,3.04E+07
1798,231.25,50,50,1.74E+06
1799,243.75,50,50,3.09E+05
1800,218.75,50,50,3.98E+06
1801,206.25,50,50,6.13E+06
1802,193.75,50,50,8.07E+06
1803,181.25,50,50,9.90E+06
1804,168.75,50,50,1.17E+07
1805,156.25,50,50,1.35E+07
1806,143.75,50,50,1.53E+07
1807,131.25,50,50,1.71E+07
1808,118.75,50,50,1.89E+07
1809,106.25,50,50,2.07E+07
1810,93.8,50,50,2.25E+07
1811,81.3,50,50,2.43E+07
1812,68.8,50,50,2.61E+07
1813,56.3,50,50,2.78E+07
1814,43.8,50,50,2.95E+07
1815,31.3,50,50,3.06E+07
1816,18.8,50,50,3.26E+07
1817,6.25,50,50,3.34E+07
1818,0,50,43.8,3.22E+07
1819,0,43.8,50,2.64E+07
1820,0,50,31.3,2.90E+07
1821,0,43.8,37.5,1.83E+07
1822,0,50,18.8,2.90E+07
1823,0,43.8,25,1.88E+07
1824,0,43.8,12.5,1.83E+07
1825,250,50,43.8,1.61E+05
1826,250,43.8,50,2.87E+05
1827,250,50,31.3,1.50E+05
1828,250,43.8,37.5,4.00E+05
1829,250,50,18.8,1.50E+05
1830,250,43.8,25,5.24E+05
1831,250,43.8,12.5,4.00E+05
1832,250,31.3,37.5,2.15E+06
1833,250,37.5,31.3,8.61E+05
1834,250,37.5,43.8,7.72E+05
1835,250,18.8,37.5,6.15E+06
1836,250,25,31.3,3.55E+06
1837,250,25,43.8,3.39E+06
1838,250,12.5,31.3,8.45E+06
1839,250,12.5,43.8,8.86E+06
1840,250,31.3,25,2.24E+06
1841,250,37.5,18.8,8.61E+05
1842,250,18.8,25,5.83E+06
1843,250,25,18.8,3.55E+06
1844,250,12.5,18.8,8.45E+06
1845,250,31.3,12.5,2.15E+06
1846,250,18.8,12.5,6.15E+06
1847,250,31.3,50,2.00E+06
1848,250,18.8,50,6.02E+06
1849,0,31.3,12.5,4.65E+06
1850,0,37.5,18.8,9.01E+06
1851,0,18.8,12.5,4.65E+06
1852,0,25,18.8,1.26E+06
1853,0,12.5,18.8,9.01E+06
1854,0,31.3,25,4.56E+06
1855,0,37.5,31.3,9.01E+06
1856,0,18.8,25,4.56E+06
1857,0,25,31.3,1.26E+06
1858,0,12.5,31.3,9.01E+06
1859,0,31.3,37.5,4.65E+06
1860,0,37.5,43.8,1.30E+07
1861,0,18.8,37.5,4.65E+06
1862,0,25,43.8,3.98E+06
1863,0,12.5,43.8,1.30E+07
1864,0,31.3,50,1.02E+07
1865,0,18.8,50,1.02E+07
